V  Nb Mo Ta W 
 1.0000000000000000
    15.8515778005355408    0.0000000000000000    0.0000000000000010
     0.0000000000000025   15.8515778005355408    0.0000000000000010
     0.0000000000000000    0.0000000000000000   15.8515778005355408
 V   Nb  Mo  Ta  W  
  50  50  50  50  50
Direct
  1.0000000000000000  1.0000000000000000  1.0000000000000000
  0.8000000000000003  1.0000000000000000  1.0000000000000004
  1.0000000000000000  1.0000000000000000  0.2000000000000001
  0.6000000000000001  1.0000000000000000  0.2000000000000000
  1.0000000000000000  0.2000000000000001  0.2000000000000001
  0.8000000000000003  0.2000000000000001  0.2000000000000001
  0.4000000000000001  0.8000000000000003  0.2000000000000001
  0.6000000000000001  1.0000000000000000  0.4000000000000001
  0.4000000000000001  0.2000000000000001  0.4000000000000001
  1.0000000000000004  0.4000000000000001  0.4000000000000001
  0.2000000000000001  0.6000000000000001  0.4000000000000001
  0.6000000000000001  0.6000000000000001  0.4000000000000001
  0.2000000000000001  1.0000000000000000  0.6000000000000001
  0.6000000000000001  1.0000000000000000  0.6000000000000001
  0.4000000000000001  0.2000000000000001  0.6000000000000001
  1.0000000000000004  0.6000000000000001  0.6000000000000001
  0.8000000000000003  0.6000000000000001  0.6000000000000001
  0.4000000000000001  0.8000000000000003  0.6000000000000001
  0.6000000000000001  0.8000000000000003  0.6000000000000001
  0.6000000000000001  0.2000000000000001  0.8000000000000003
  0.1000000000000000  0.1000000000000000  0.1000000000000000
  0.9000000000000002  0.1000000000000000  0.1000000000000000
  0.5000000000000002  0.3000000000000000  0.1000000000000000
  0.7000000000000002  0.3000000000000000  0.1000000000000000
  0.5000000000000000  0.1000000000000000  0.3000000000000000
  0.1000000000000000  0.3000000000000000  0.3000000000000000
  0.9000000000000002  0.3000000000000000  0.3000000000000000
  0.1000000000000000  0.5000000000000000  0.3000000000000000
  0.9000000000000002  0.5000000000000000  0.3000000000000000
  0.5000000000000002  0.7000000000000002  0.3000000000000000
  0.7000000000000002  0.9000000000000002  0.3000000000000000
  0.9000000000000002  0.1000000000000000  0.5000000000000000
  0.5000000000000002  0.3000000000000000  0.5000000000000002
  0.7000000000000002  0.3000000000000000  0.5000000000000000
  0.1000000000000000  0.5000000000000000  0.5000000000000002
  0.7000000000000002  0.5000000000000000  0.5000000000000000
  0.5000000000000002  0.9000000000000002  0.5000000000000002
  0.9000000000000002  0.9000000000000002  0.5000000000000002
  0.1000000000000000  0.5000000000000000  0.7000000000000002
  0.7000000000000002  0.5000000000000000  0.7000000000000002
  0.3000000000000000  0.7000000000000002  0.7000000000000002
  0.9000000000000002  0.9000000000000002  0.7000000000000002
  0.1000000000000000  0.1000000000000000  0.9000000000000002
  0.5000000000000000  0.1000000000000000  0.9000000000000002
  0.7000000000000002  0.3000000000000000  0.9000000000000002
  0.9000000000000002  0.3000000000000000  0.9000000000000002
  0.7000000000000002  0.7000000000000002  0.9000000000000002
  0.9000000000000002  0.7000000000000002  0.9000000000000002
  0.3000000000000000  0.9000000000000002  0.9000000000000002
  0.9000000000000002  0.9000000000000002  0.9000000000000002
  0.4000000000000001  1.0000000000000000  1.0000000000000004
  0.6000000000000001  0.2000000000000001  1.0000000000000000
  0.2000000000000001  0.4000000000000001  1.0000000000000000
  0.6000000000000001  0.4000000000000001  1.0000000000000004
  1.0000000000000004  0.4000000000000001  0.2000000000000001
  0.6000000000000001  0.4000000000000001  0.2000000000000001
  0.8000000000000003  0.4000000000000001  0.2000000000000001
  0.4000000000000001  0.6000000000000001  0.2000000000000001
  0.8000000000000003  0.6000000000000001  0.2000000000000001
  0.6000000000000001  0.8000000000000003  0.2000000000000001
  0.4000000000000001  0.6000000000000001  0.4000000000000001
  1.0000000000000000  1.0000000000000000  0.6000000000000001
  0.8000000000000003  1.0000000000000000  0.6000000000000001
  0.2000000000000001  0.4000000000000001  0.6000000000000001
  0.6000000000000001  0.4000000000000001  0.6000000000000001
  1.0000000000000000  0.8000000000000003  0.6000000000000001
  0.2000000000000001  0.8000000000000003  0.6000000000000001
  1.0000000000000004  0.4000000000000001  0.8000000000000003
  0.4000000000000001  0.4000000000000001  0.8000000000000003
  0.8000000000000003  0.6000000000000001  0.8000000000000003
  0.5000000000000000  0.1000000000000000  0.1000000000000000
  0.3000000000000000  0.3000000000000000  0.1000000000000000
  0.3000000000000000  0.5000000000000000  0.1000000000000000
  0.5000000000000000  0.5000000000000000  0.1000000000000000
  0.9000000000000002  0.5000000000000000  0.1000000000000000
  0.9000000000000002  0.7000000000000002  0.1000000000000000
  0.1000000000000000  0.9000000000000002  0.1000000000000000
  0.3000000000000000  0.1000000000000000  0.3000000000000000
  0.7000000000000002  0.1000000000000000  0.3000000000000000
  0.3000000000000000  0.3000000000000000  0.3000000000000000
  0.7000000000000002  0.5000000000000000  0.3000000000000000
  0.9000000000000002  0.7000000000000002  0.3000000000000000
  0.3000000000000000  0.3000000000000000  0.5000000000000002
  0.3000000000000000  0.5000000000000000  0.5000000000000002
  0.9000000000000002  0.5000000000000000  0.5000000000000002
  0.3000000000000000  0.7000000000000002  0.5000000000000000
  0.3000000000000000  0.9000000000000002  0.5000000000000000
  0.1000000000000000  0.1000000000000000  0.7000000000000002
  0.3000000000000000  0.1000000000000000  0.7000000000000002
  0.1000000000000000  0.3000000000000000  0.7000000000000002
  0.3000000000000000  0.3000000000000000  0.7000000000000002
  0.5000000000000002  0.3000000000000000  0.7000000000000002
  0.9000000000000002  0.3000000000000000  0.7000000000000002
  0.3000000000000000  0.5000000000000000  0.7000000000000002
  0.1000000000000000  0.7000000000000002  0.7000000000000002
  0.5000000000000002  0.7000000000000002  0.7000000000000002
  0.1000000000000000  0.9000000000000002  0.7000000000000002
  0.1000000000000000  0.3000000000000000  0.9000000000000002
  0.3000000000000000  0.3000000000000000  0.9000000000000002
  0.3000000000000000  0.7000000000000002  0.9000000000000002
  1.0000000000000000  0.2000000000000001  1.0000000000000004
  0.4000000000000001  0.6000000000000001  1.0000000000000004
  0.6000000000000001  0.6000000000000001  1.0000000000000004
  0.8000000000000003  0.6000000000000001  1.0000000000000004
  0.2000000000000001  0.8000000000000003  1.0000000000000004
  0.6000000000000001  0.2000000000000001  0.2000000000000001
  0.2000000000000001  0.4000000000000001  0.2000000000000001
  1.0000000000000004  0.6000000000000001  0.2000000000000000
  0.2000000000000001  0.6000000000000001  0.2000000000000001
  0.6000000000000001  0.6000000000000001  0.2000000000000001
  1.0000000000000000  0.8000000000000003  0.2000000000000001
  0.2000000000000001  0.8000000000000003  0.2000000000000001
  1.0000000000000000  1.0000000000000000  0.4000000000000001
  0.8000000000000003  1.0000000000000000  0.4000000000000001
  0.4000000000000001  1.0000000000000000  0.6000000000000001
  1.0000000000000000  0.2000000000000001  0.6000000000000001
  0.2000000000000001  0.2000000000000001  0.6000000000000001
  0.6000000000000001  0.2000000000000001  0.6000000000000001
  0.8000000000000003  0.2000000000000001  0.6000000000000001
  0.4000000000000001  0.4000000000000001  0.6000000000000001
  1.0000000000000000  1.0000000000000000  0.8000000000000003
  1.0000000000000000  0.2000000000000001  0.8000000000000003
  0.2000000000000001  0.2000000000000001  0.8000000000000003
  0.8000000000000003  0.2000000000000001  0.8000000000000003
  1.0000000000000004  0.6000000000000001  0.8000000000000003
  0.4000000000000001  0.6000000000000001  0.8000000000000003
  0.6000000000000001  0.6000000000000001  0.8000000000000003
  1.0000000000000000  0.8000000000000003  0.8000000000000003
  0.4000000000000001  0.8000000000000003  0.8000000000000003
  0.3000000000000000  0.1000000000000000  0.1000000000000000
  0.7000000000000002  0.1000000000000000  0.1000000000000000
  0.7000000000000002  0.5000000000000000  0.1000000000000000
  0.1000000000000000  0.7000000000000002  0.1000000000000000
  0.7000000000000002  0.7000000000000002  0.1000000000000000
  0.5000000000000002  0.9000000000000002  0.1000000000000000
  0.9000000000000002  0.9000000000000002  0.1000000000000000
  0.3000000000000000  0.5000000000000000  0.3000000000000000
  0.5000000000000000  0.5000000000000000  0.3000000000000000
  0.3000000000000000  0.9000000000000002  0.3000000000000000
  0.1000000000000000  0.1000000000000000  0.5000000000000000
  0.7000000000000002  0.7000000000000002  0.5000000000000002
  0.5000000000000000  0.1000000000000000  0.7000000000000002
  0.9000000000000002  0.1000000000000000  0.7000000000000002
  0.5000000000000000  0.5000000000000000  0.7000000000000002
  0.9000000000000002  0.5000000000000000  0.7000000000000002
  0.3000000000000000  0.1000000000000000  0.9000000000000002
  0.5000000000000002  0.3000000000000000  0.9000000000000002
  0.3000000000000000  0.5000000000000000  0.9000000000000002
  0.1000000000000000  0.7000000000000002  0.9000000000000002
  0.7000000000000002  0.9000000000000002  0.9000000000000002
  0.2000000000000001  1.0000000000000000  1.0000000000000004
  0.2000000000000001  0.2000000000000001  1.0000000000000000
  0.8000000000000003  0.2000000000000001  1.0000000000000004
  0.4000000000000001  0.4000000000000001  1.0000000000000000
  0.8000000000000003  0.4000000000000001  1.0000000000000004
  1.0000000000000000  0.8000000000000003  1.0000000000000004
  0.4000000000000001  0.8000000000000003  1.0000000000000004
  0.4000000000000001  1.0000000000000000  0.2000000000000001
  0.4000000000000001  0.4000000000000001  0.2000000000000001
  0.8000000000000003  0.8000000000000003  0.2000000000000000
  0.6000000000000001  0.2000000000000001  0.4000000000000001
  0.8000000000000003  0.2000000000000001  0.4000000000000001
  0.4000000000000001  0.4000000000000001  0.4000000000000001
  0.8000000000000003  0.4000000000000001  0.4000000000000001
  1.0000000000000004  0.6000000000000001  0.4000000000000001
  0.8000000000000003  0.6000000000000001  0.4000000000000001
  1.0000000000000000  0.8000000000000003  0.4000000000000001
  0.2000000000000001  0.8000000000000003  0.4000000000000001
  0.6000000000000001  0.8000000000000003  0.4000000000000001
  1.0000000000000004  0.4000000000000001  0.6000000000000001
  0.2000000000000001  0.6000000000000001  0.6000000000000001
  0.4000000000000001  0.6000000000000001  0.6000000000000001
  0.4000000000000001  1.0000000000000000  0.8000000000000003
  0.6000000000000001  1.0000000000000000  0.8000000000000003
  0.8000000000000003  1.0000000000000000  0.8000000000000003
  0.2000000000000001  0.4000000000000001  0.8000000000000003
  0.8000000000000003  0.4000000000000001  0.8000000000000003
  0.2000000000000001  0.6000000000000001  0.8000000000000003
  0.2000000000000001  0.8000000000000003  0.8000000000000003
  0.6000000000000001  0.8000000000000003  0.8000000000000003
  0.1000000000000000  0.3000000000000000  0.1000000000000000
  0.3000000000000000  0.7000000000000002  0.1000000000000000
  0.3000000000000000  0.9000000000000002  0.1000000000000000
  0.7000000000000002  0.9000000000000002  0.1000000000000000
  0.1000000000000000  0.1000000000000000  0.3000000000000000
  0.5000000000000002  0.3000000000000000  0.3000000000000000
  0.7000000000000002  0.7000000000000002  0.3000000000000000
  0.1000000000000000  0.9000000000000002  0.3000000000000000
  0.3000000000000000  0.1000000000000000  0.5000000000000000
  0.5000000000000000  0.1000000000000000  0.5000000000000002
  0.7000000000000002  0.1000000000000000  0.5000000000000002
  0.1000000000000000  0.3000000000000000  0.5000000000000000
  0.9000000000000002  0.3000000000000000  0.5000000000000000
  0.7000000000000002  0.9000000000000002  0.5000000000000002
  0.7000000000000002  0.1000000000000000  0.7000000000000002
  0.7000000000000002  0.7000000000000002  0.7000000000000002
  0.5000000000000002  0.9000000000000002  0.7000000000000002
  0.9000000000000002  0.1000000000000000  0.9000000000000002
  0.7000000000000002  0.5000000000000000  0.9000000000000002
  0.1000000000000000  0.9000000000000002  0.9000000000000002
  0.6000000000000001  1.0000000000000000  1.0000000000000004
  0.4000000000000001  0.2000000000000001  1.0000000000000000
  1.0000000000000004  0.4000000000000001  1.0000000000000004
  1.0000000000000004  0.6000000000000001  1.0000000000000004
  0.2000000000000001  0.6000000000000001  1.0000000000000000
  0.6000000000000001  0.8000000000000003  1.0000000000000004
  0.8000000000000003  0.8000000000000003  1.0000000000000004
  0.2000000000000001  1.0000000000000000  0.2000000000000001
  0.8000000000000003  1.0000000000000000  0.2000000000000001
  0.2000000000000001  0.2000000000000001  0.2000000000000001
  0.4000000000000001  0.2000000000000001  0.2000000000000001
  0.2000000000000001  1.0000000000000000  0.4000000000000001
  0.4000000000000001  1.0000000000000000  0.4000000000000001
  1.0000000000000000  0.2000000000000001  0.4000000000000001
  0.2000000000000001  0.2000000000000001  0.4000000000000001
  0.2000000000000001  0.4000000000000001  0.4000000000000001
  0.6000000000000001  0.4000000000000001  0.4000000000000001
  0.4000000000000001  0.8000000000000003  0.4000000000000001
  0.8000000000000003  0.8000000000000003  0.4000000000000001
  0.8000000000000003  0.4000000000000001  0.6000000000000001
  0.6000000000000001  0.6000000000000001  0.6000000000000001
  0.8000000000000003  0.8000000000000003  0.6000000000000001
  0.2000000000000001  1.0000000000000000  0.8000000000000003
  0.4000000000000001  0.2000000000000001  0.8000000000000003
  0.6000000000000001  0.4000000000000001  0.8000000000000003
  0.8000000000000003  0.8000000000000003  0.8000000000000003
  0.9000000000000002  0.3000000000000000  0.1000000000000000
  0.1000000000000000  0.5000000000000000  0.1000000000000000
  0.5000000000000002  0.7000000000000002  0.1000000000000000
  0.9000000000000002  0.1000000000000000  0.3000000000000000
  0.7000000000000002  0.3000000000000000  0.3000000000000000
  0.1000000000000000  0.7000000000000002  0.3000000000000000
  0.3000000000000000  0.7000000000000002  0.3000000000000000
  0.5000000000000002  0.9000000000000002  0.3000000000000000
  0.9000000000000002  0.9000000000000002  0.3000000000000000
  0.5000000000000000  0.5000000000000000  0.5000000000000000
  0.1000000000000000  0.7000000000000002  0.5000000000000002
  0.5000000000000002  0.7000000000000002  0.5000000000000000
  0.9000000000000002  0.7000000000000002  0.5000000000000002
  0.1000000000000000  0.9000000000000002  0.5000000000000000
  0.7000000000000002  0.3000000000000000  0.7000000000000002
  0.9000000000000002  0.7000000000000002  0.7000000000000002
  0.3000000000000000  0.9000000000000002  0.7000000000000002
  0.7000000000000002  0.9000000000000002  0.7000000000000002
  0.7000000000000002  0.1000000000000000  0.9000000000000002
  0.1000000000000000  0.5000000000000000  0.9000000000000002
  0.5000000000000000  0.5000000000000000  0.9000000000000002
  0.9000000000000002  0.5000000000000000  0.9000000000000002
  0.5000000000000002  0.7000000000000002  0.9000000000000002
  0.5000000000000002  0.9000000000000002  0.9000000000000002
