Mo Nb Ta V  W 
 1.0000000000000000
    15.8515778005355408    0.0000000000000000    0.0000000000000010
     0.0000000000000025   15.8515778005355408    0.0000000000000010
     0.0000000000000000    0.0000000000000000   15.8515778005355408
 Mo  Nb  Ta  V   W  
  50  50  50  50  50
Cartesian
 15.8186047226792930  3.2107707990574981  3.1832894728394794
  6.3240269864882661  3.2218297314469204  9.6195390466893667
 12.8071693656659207  9.4840789236572771  9.5353611246519741
  1.5361095408677778  1.5789290983318931  1.6223260327404179
  7.9514051535869585  1.5370061801518635  4.8016366528487966
  1.6000896484371834  7.9428881364021517  4.8327574101385542
 10.9908702359194326 14.2461737528180432  4.9099363026871528
 14.2762320656117243  1.5855423484036353  7.9274199192922863
 11.0512765993413691  4.7785635410608114  7.9992856504044765
  1.6155318022830036  7.9412394712927901  7.9353384371597908
 14.1791473128859842 14.2057215593531758  8.0123721905696623
 11.0977131071177073  4.6918563523949386 14.2443617501341286
 12.6826645037730348  6.4584096328136225  3.1902373322319266
 12.7097484482536132  9.4628068488848633 12.6299065640936998
  7.9952512372717122  1.6171307241976560  1.4926474377720442
  4.7310425111057688  4.7207921897542171  1.5595387570964980
  4.7415176777999415  7.8944727502559102  1.5592256827840860
  1.5819099083728274 14.3328614677631485  1.6041556114318731
  4.7624471833741087 14.3595692591714066  7.9761980045949157
  1.6401049335860567 14.3323360398768944 11.0867933005951116
  4.7388754767537451  4.6915115292071903 14.2293867864137447
 15.8864383092941406  3.2061018664392820 15.7630854238914271
  6.3819879620835049  9.4443839630016058 15.8114289926940828
 15.7341568001945120  9.4245991211823057  3.2065272467151629
  3.2253004912362999 12.7329205473490674  3.0813469663961177
 15.9390168593681896  3.1837891205230560 12.8066170019521230
  7.9347927138606602 14.3072976093988853  1.5422669582230288
  7.9509517663027713  7.8975511417554882  4.7567236982681136
  7.9467690706007534  4.7142357411725380 14.2691024317247486
  1.5865337156446138 11.0720623633288895 14.2432474408150007
  6.2456106146083696 12.7553641960359343 15.9026708753955202
  3.1655497751000556  9.4828516929770359  9.5209017100467044
  4.7456148822472759 11.1028701994704679  1.5428058943545182
 11.1042526780295834 14.3421662677078530  1.4249092110312784
  7.9444979919327592  4.7622261897464702  4.7323094917036732
 11.0965176473110105 11.1159563714354075  4.7992947230602407
 10.9796599830400528  1.5134020974501972  7.9957316862629888
  7.9803356331725732 14.2994096687737180 10.9731853152319676
  9.5388821750698369 12.6916490081773237 15.7826671361700406
 12.7493286342662309 12.7724110911253081 15.7796269258205815
  3.1759242088046675 15.9165198492112783  6.3265026485927489
 12.7326151910940748 12.6973231418388846  6.3172707161114028
 11.1250780456205263  4.7711251118644187  4.7572709341718715
  7.9135204142718223  7.8850888892573439  7.9282808853007065
  7.9873495841912225 11.1850344621242357  7.9339132868111841
 14.1973418164720275 11.1064888404885220  8.0032605422144556
  1.6558875859095639 14.3307292310105847  7.9826973861191650
 11.0807878183185355  4.7340062041349906 11.0770547207786425
  4.7586136391862297 14.4194916431914457 10.9933438637012184
 14.1978254527965504  7.9393784042507498 14.3165792044725055
 12.7053600444351371  3.1852114565201362  3.2154209346655689
  6.3015210628029692  3.1498017120912039  6.2410928886434256
 15.6818659809348855  6.3436942582314000  6.3863330368465778
  6.2910441763205620 12.7138674124021858  9.4881020377167733
  9.4648268049050905  3.2446164295221220 12.5848398207328209
 14.2330470586820077 11.0418381414618132 14.2709280837433941
 15.6834072972658731  6.4100640385164303  3.2208221726407946
  9.4855933075448871 12.7455394040670171  3.1945707373359689
  6.2896507909783947  9.4867497557562857  6.2977461979578546
  3.2992280745017570  6.3389207616097103  9.6459066241521825
  6.3575379346193435  6.3521828922944019 12.5721393175042397
 11.0879575314176595  1.5692332715098287  4.7881709847217211
  4.6950766205894947 11.0315602787328082  7.8898699448928076
  4.7873857077871342 11.0310871912383544 14.1774852550556130
  9.6058587346614299  9.3751232117393464 15.7746958654264908
  3.2797327245509607  6.3430464667555082  3.2552842890544937
  3.2038731837273522  9.4747385802466351  3.2536048608267096
 12.6927808396574768 15.8227301604324015  6.3016495903028460
 15.8595402992285752  3.1355266348259270  9.5157807065226585
 15.8894788035342316 15.7955720324470903 12.7275419347336740
 15.7477842028639383  9.4681824313909591 12.6077088569052513
  9.4626190453250771  9.3889063638061963 12.7223837214768345
 15.7669962233173298 12.7574014531276330 12.6327104680905293
  6.3470314868344939 12.7143393417262480 12.6525625658628620
 11.0769463731941507  1.5646278214484504  1.4207856128587379
  1.5636839805940965 11.0648479546666483  1.5735723185830739
 14.2861784590511167 14.3407981267132350  1.5730898038520864
  1.6533919065194669  1.5507277371139025  8.0171817950896056
  7.9533496078650598  1.5934486563077388 10.9402362228797010
 15.8659662938075243 12.7809906602013186 15.7399432486026125
 12.6726384235349201 12.7388844283215104  3.2119952982151339
  6.2830810354318070  6.3340034824721583  6.2510897362996243
 15.8561049910178884  9.4911892640124549  6.4370873695164113
 12.6920726370140127  9.3816764215051354  6.3141107547174480
  3.0994834725382479 12.5942218758041768  6.4319889319792347
  3.1342837152675358 12.7577464861180356 12.6970886474165923
  1.5646333081519119  4.7557791086593815  1.6059613635628349
  1.5723251787649311 14.3371570927388241  4.7205735503108626
  7.9609010626046430  1.4794558705218630  8.0293836933180973
  1.5872525988455224  4.7793232012194418  7.9785335348271111
 11.1124254025236358  1.6271697231248192 11.1438796226931114
  9.4479655004875660  9.4970882848114204  9.5250280233879732
  6.2273690982771930  3.1238453778358708 12.6012691536930319
  7.9596396835362206 11.1217075563608674  1.5392441655256084
 14.3049750778192877  1.5713855372000649  4.6741589415436584
  1.6269896358401361 11.0394697936389612  4.8257266435639146
  4.7011216622552547 11.0621387264824200  4.8133770260858260
 11.1207811139934822 14.2186313077188053 11.0206068961819010
  7.8580022176682194 11.0234986579571270 14.1998921925352786
  7.9754446743276715 14.3048389867421921 14.2870862154409739
 15.8971267346652390 15.8536686570466809 15.7775782481101761
  9.4797575394761129 15.8048928680514056  3.1784001453638973
  6.3418018092024537 12.7622327154731394  3.1560705447658353
  9.5424946066185008  9.4793350317272260  6.3294227402883925
 15.7782729041830247  9.5014994127593457  9.5120326098501984
  7.9975221227990803 14.2929491678137435  7.9504239697178347
  6.3029435998986720 15.9052579376516174 15.8563811709128384
  3.1333540226671497  6.3247624898761110 15.7716999442565609
  9.5474635892901567  6.3527834832596790 15.7993583784036389
  9.5820804559740633  6.3555335033892497  3.1206576928074137
  6.3318321930944474  9.4807635047517582  3.1581968898304367
 12.6809887320579264  9.3469976696559876  3.2052023241297904
 15.8359727007108386 15.8374819877980126  9.6171163450335850
 12.7325545581237680 15.8454917085034239  9.5603552644108181
 15.8241076911416894 12.6566782163502332  9.5695005413079723
 15.8198451859367193  6.3300419762410733 12.7621098081172022
 14.2291543622752332 11.0258721775719444  1.5066257276411612
  7.9024168425069421 11.0998752867714767 11.0792003929516163
  3.1591350471258619 12.7502028448545701 15.8515666096893568
  9.4683831914341603  3.2207382612863467  3.0849118878582154
  9.5586002041607685  9.4480395337852805  3.1861793265133267
 15.8511009979578539 12.7108562517834862  3.2064488479683892
 15.8257836197833281 15.8054173459631446  6.3732389430581895
  3.2457594307717481  3.1347279257398073  9.6831907550000018
 12.6852869019929315  3.2080842984251166  9.4840384609295647
  6.3762821072820630  6.3529238854355006  9.6206462878120274
 11.1786085848671775 11.0937473378168168  1.4786554635858009
 11.1309084588000307 11.1885435001447568  7.9986742310666417
 11.1680240532459862 14.3791746787907329 14.2634149598886477
  3.1460722973105968 15.8888113981316312 15.8043420917563822
  3.0725387917579954  3.1182649854731230 15.7632605422188998
  6.3915826556474524  6.2895414792922564 15.8221359780803486
  6.3163817868130696 15.8602364736425159  3.1883307038848749
  6.3604548524090490  6.2838045537263474  3.1303677335458566
  9.5266581035666462  3.1781207353883505  6.4035964453114032
 12.6988729101021587  6.3336079724312047  6.3363887045744951
 15.8227600946441722 12.6859824789438544  6.4182217911448589
  3.1595072525104024  6.3424578949887058 12.6994290392968825
 12.6749357512941785  6.3349430653088419 12.7190694030396969
  4.8193393925348804  1.4722413271267965  8.0168695802919476
 11.0441490903602588 14.2150384314742428  7.9235259037440091
 14.1914851111546181  1.6128491301871810 14.2048246899345205
 15.8068384932124832  6.3215541754700206 15.8148472648462963
  6.3517886246748603  3.1742460001417405  3.1610470842841063
 15.7947236016548445  3.2221384386303251  6.3253592534273553
  3.2239816029386845  3.1812859467113337  6.2871734793376604
 12.7872893608096696  6.3540027134484376  9.5107075593125767
  3.1788692913363374 15.9803877387195428 12.6575919185740453
  9.4602342282421414  6.3771034801769835 12.6570702394875187
 11.1107169917217412  1.6178187053282818 14.2755249149725998
 12.7369814425618753 15.8919025903216351 15.7962197154667887
 15.8593537474302302 15.8437571301694895  3.1498759447324196
  9.4978516952621650 15.8241009874363439  6.3558061460224184
  3.1605194824496952  9.4738435564579397  6.3730600272632367
  3.1820174629277025 15.9286884534454742  9.6109278437606296
  9.5496464388796998 15.8170781330455501  9.5310364717605154
  9.5311401070414092 12.6625766051127577  9.4895121440366292
  7.9632047533454351  4.7426055480741898  1.5401292898682071
 14.2353851082448433  4.7917938866386240  4.7588812800998115
 14.2393626651604155  7.8938780916521996  4.8136385981532426
 14.2261018763749121 14.2525389952984298 11.1167710581881245
  1.5550436517611701  1.5694367702155403 14.2394021217000066
 14.2460474873229739  4.7093262428471201 14.2467252054713764
 14.1744840053663719 14.3476407939022348 14.2201923582447467
  9.4978302355462745  3.2564506530970148 15.8815881377113222
 14.2231070080098512  7.9392057388357795  1.5443218307675903
  4.7814333538787475  1.6102181309133321  4.7707532572801430
  4.7917674865988014  4.7216379363772649  4.7322152862398505
 11.1082073606377563  7.8925722617550216  4.7734418152039053
 14.2547904380231358  7.9165441102341525  7.9129586911509300
  1.5803123279688609  1.5919654260405698 11.1088062355269290
  4.8008687600507924  1.5473628195082609 11.0730562569851365
  4.7540159010434024  4.7905841886175144 11.1504501831040770
  7.9159598719274644  4.7231551376314496 11.0954575762503111
  4.7808446131433975  7.9175468255864283 11.1488712095404185
  1.5601700587955731  4.7782723590182803 14.2683045892519811
 12.6293473585543534  9.4014670370288869 15.8702959735845290
  6.3567289520404087 15.8207320946536836  9.5339754295240020
  9.5066422647705728  3.2256144357634997  9.5118363020433225
 12.6517675194601793  3.2606255128455288 12.7084238862598937
  6.3677021623305752  9.4163410741307683 12.6528296572843502
 11.1554570684010503  7.9269679345712740  1.5282275707128392
  4.7760510301613781  7.9363677463448070  4.7546728757475458
  7.8831232403318854  7.9729095683307820 11.1418548614796986
 14.2738935395853286  7.8961540207925998 11.1174710723946646
  4.7226525915221735  1.6193805730793542 14.2678281033334269
  9.4792302102550696 12.6745255450176408  6.3531867346057425
 12.7209105268567484 15.8407560388989292 12.6284292948361418
  4.7351442484479573 14.3485484233971885  1.5912609668042343
 14.2659141167768091  4.7822518751070415  7.9435043415886906
 11.1346281492188606  7.9378885054408252 14.2649474240457987
  1.6052315429401032 14.2988909716714954 14.2141046836908380
  9.5041246876604628 15.8881609231846532 15.8532473407270142
 12.7297103200798212 12.6876352380264912  9.5860582233245708
  7.9739166823872694 14.2912362624627907  4.8359683750857565
 14.3153287779871157 14.3168263191034466  4.7204598529100892
  1.5942294342474630 11.0394024940150608  7.9663975159506304
 14.2253343355292508 11.1065671509866792 11.1069846867321154
  1.5502638129240744  7.8782186872043454 14.2353838568136322
  7.9237930577825306  7.9246556838198634 14.2089115252665792
 14.2670476134449764  1.5408059265007810  1.5383009840327670
 11.1307511582469143  4.7455992025350380  1.5255781697362074
  1.5761347303944662  4.7916243930257361  4.7653146700486122
  7.9332521997385124 11.1328394388074869  4.7591307256540345
  7.9321279799334876  4.7346216511879682  7.9603770793304829
 11.1049430675873033  7.9072715207346107  7.9818406086620977
  1.5530769061220373  7.9105976150834731 11.0954639197238958
 11.1279531087881161  7.9295990245519734 11.0815868658995083
  4.7634150271059950 11.0427970831844746 11.1316409570958736
  8.0020684832466973  1.5974089586471856 14.2843433338566257
 11.1762393655681649 11.0415567493992857 14.2696163290662668
  4.7605930281988424 14.3252979374878056 14.2509480857945547
  9.4102696265433092  6.3541367302809384  9.6275942632803471
  3.1303426706421265 12.6407433491280283  9.4924765743608894
  7.9416423128974900  7.9138570645868835  1.5444703654622332
 14.2621942019785664 11.0607935557610748  4.7489320880216424
  4.7872400049779698  4.7337058370262026  7.9638528246458238
  4.7344332815359058  7.9449811927692062  7.9339681059543699
  1.5541322994926601  4.7558568073837764 11.1242749962608087
 14.2790246680566462  4.7093044588565265 11.1788416292340003
  1.5716241821923744 11.0534571557541526 11.1130659077247316
  3.1472742052713589  3.0891125265809882 12.6805521888827677
  4.7189448576291335  1.6068777033488391  1.5679121612540246
  4.7184718921283633 14.2562104142725001  4.7666827850287881
 14.1889610819506800  1.6329159766961796 11.2540505584932795
  4.7976218274120646  7.9487125662226514 14.2300848812587155
 12.7359524200592666  3.2231483363298454 15.8095806603270699
 12.6734122448209092  6.3739449191009303 15.8071914204999846
 12.7180555896191247  3.2561290962249521  6.3651969969191038
 15.7483426421418269  6.3784032596573823  9.5275151652295200
  6.3356386100985294  9.4157203541966226  9.5415063085952632
  6.3155357363776217 15.9572522654255273 12.6756209850238513
  9.5128501291944865 15.8806113096722168 12.6580447966214056
  3.1564340976211098  9.3963955480028787 12.6777710595487392
  9.5445097222054702 12.6709857629043174 12.6825981779443673
  1.5381819238470735  1.5498894938518628  4.7354902791164681
 11.1009270585403836 11.1429778992647233 11.0154436114502428
  6.3355489235500819  3.1644854001988389 15.8573401250435229
 15.8644132230089028  9.4091430520645272 15.8259270340819729
  3.1312817087680238  9.4383116542587757 15.7915040409420033
  3.2608456118707143 15.9005710252076398  3.1730647188353931
 12.6473109283544947 15.8040751853693706  3.1787038193935078
  3.2292570544753247  3.1597012525693504  3.2482396831172786
  6.3752906718599762 15.8377447778517624  6.2852616175109484
  3.2489718889300079  6.3084359697128418  6.3138179069134956
  9.5801491648420303  6.3375284363703388  6.3379484427652111
  6.3793217010990704 12.7438767289121273  6.3357201655143456
 12.7669010664530447 12.6963289777406292 12.6281895319826756
 14.2463798711640415  4.7808000096313226  1.5750659519437407
  1.5732539094019951  7.8894785477465650  1.6020670782403532
