Mo Nb Ta V  W 
 1.0000000000000000
    15.8515778005355408    0.0000000000000000    0.0000000000000010
     0.0000000000000025   15.8515778005355408    0.0000000000000010
     0.0000000000000000    0.0000000000000000   15.8515778005355408
 Mo  Nb  Ta  V   W  
  50  50  50  50  50
Cartesian
 12.6914811452379634 15.8463937057773929 15.8759152182939189
 15.9101638842513005  3.2595539958644260  3.1433335094495711
  1.5669660839212045  1.6626033332044250  1.5169134327568781
 14.2512267070936947  1.6621149030225368  1.5474760656985969
  7.9736894534136358  4.7319980438169074  1.5385597918739151
  7.9598370133372223  1.5683286101656146  4.7193500450127281
  1.5741532310796069  7.9247669300118178  4.7267642544574864
  7.9456626846357761 11.1979649319731998  4.8193502306832201
 14.2313938379783131  1.5902619195908674  7.9938079678169744
 11.1007344339764860  4.7888860256281278  7.9431983712989958
 14.1707014137078176 14.2761521683920662  8.0379129973436072
  1.5908227416823282  1.6608992599229015 14.2579587740048588
  7.9862211480436107  1.5736259366900347 14.3582741976321024
 11.0813371497701407  4.7031079574573855 14.3064303362340084
  3.1083898548310165  6.2029472029863220 15.8510748618921848
 12.7624392752619489  6.3431190523830070  3.1630301950297453
  7.9827929280007845  1.5291485810117600  1.4296679901164486
  4.7387820634237379  7.8958475768827991  1.5743215436188398
  7.9240441515037325  7.9233456252127903  1.5807774363094824
  1.5687756999347511 14.2881224197433223  1.5597864322252950
  4.7560476300846171  4.7604152067119863  4.7168861384052825
 11.1018254184113054  7.9368431251600757  4.7633661542896535
 14.2523728733335222  7.8931297120462531  7.9753075901628767
  4.7769300420417249  1.5618320964886614 11.0233022373638825
  4.7924702941524417  4.7565144435345807 11.1064853473914145
  1.6982755255154580 11.0729602447121476 11.0645785181114178
 15.8815474923078934  3.2998219239712321 15.8072777757467531
 15.7224442543002461  9.4096065702182319  3.1200263559034260
 15.8933464741577861  3.2587206613652819 12.6868394005619507
 12.6860353840361810  3.2690452590312327 12.6721677120579965
  6.3754245014829198  9.3443041677727958 12.6187077776934373
  6.3140906998906443 12.7137843465474951 12.6644952362396754
 14.2113308767836433  1.5722647752339556 11.1739347482867206
  1.5828969512910009 11.0799259337666864 14.2648911244114061
  3.1916265423067367  9.4313832867013669 12.6159409336959403
  3.2108279245515989 12.6931328387741971 12.7051138457559567
  7.9412223585126593  4.7808715859133617  4.7683965185715600
 11.0748363850151268 11.1531493944936493  4.8083568529656038
 11.1313332969658685  1.5617508819386072  7.9578493024729458
  1.5879131911730513  4.7482192611190506  7.9367360633300672
  7.8603404157579515 14.2136417271287350 10.9607935157191729
  1.5880088795960858 14.2747322465924018 14.2349272287593926
 15.7427069781637456  9.3818682494121024 15.9398461223879568
 12.6412128824406995 12.6392674507074627 16.0227518420161381
 12.7054053145718697 15.7514693062950801  3.0610062463266403
  3.2272439292905588 15.9400935821722616  6.2940645991861590
  6.3375420144118992 15.9230890873592390  6.3403850479146007
  4.8162282377412202 11.1307698721063293  4.7704242654685958
  7.9492326880791362 14.2047457140676698  4.8538226192155740
  7.8909917287793094 11.2053116956260670  7.9489881422870194
  6.3971109861145248 12.7939669287221029  3.0503685880783271
  9.5164433571005418 15.8245371222804785  9.4765728634509827
  9.5158396145830899  3.2256233885372421 12.5791769349887108
 11.1101632442433438 14.2270746453796448  4.7608293995531010
  1.5909312061700371  7.9263062477778972  8.0024882789941749
 14.1394416198825539 14.3191942761070230 11.0707849639469895
 14.2683764191960378 11.0856920469239508 14.2767997731095573
 14.1952348287219063 14.3269172840735859 14.2505236373209740
 12.7168605181877670  9.5374460405847366  3.0966406935732800
 15.9006522388488083 15.9153125402809312  9.5853181283986615
  3.1791146916462876  6.3537902672826192  9.6114614847532209
 11.1473820244989987  1.5881485281341186  4.7001302835390213
  4.7025819937018216  7.9474926007929314  8.0310175281495173
  4.7819243178114288 11.1377169127245192  8.0044381511653206
  4.8091693533460447 14.2310182700018100  8.0461329624898141
  1.7064011059879247 14.2897891504274206 11.0202542220072530
  6.4078802034927040  9.4569794462856969 15.7832247024240928
  9.5907556256859916  9.4182533818396852 15.8062481858311799
  3.1525512485694818  6.3230693742815651  3.0144859457278548
  3.1653899667399754  9.4158508582532736  3.1697307818803453
 15.7915795288393319 15.8299242836985368  6.3108743994765950
 12.7093941721547559 15.8134002358764949  6.2897573657196748
 15.7736330807254923  9.5639007704419559 12.6996281732669267
  1.5203366345388780 11.0291455756435965  1.5517159949258474
  1.5957204912335887  1.5605459913808568  7.9859631604622212
 11.0503353429921543 11.1636241311573077  7.9810002299896965
 15.7398782651043359 12.6825633602018932 15.8970401903506335
  6.2749743708502299 12.8688833074324034 15.8436378147879200
 12.6834258657984069 12.7212416954874801  3.0415031150417482
 15.7715474111023717  9.4938223742470189  6.3857717989131553
 12.6784699643995378  9.4584225393377821  6.4053188798974174
  3.1680612423523415 12.6613849590686591  6.3476975981318882
  6.3220722009862502 15.7954062344541057 12.7566852698716069
  9.4808728069470618 12.7384130644426445 12.6554918437206467
  1.5753420497910728 14.3010761647068350  4.7540042298898557
  4.7827022161380297  1.5373735842449374  8.0907261601743183
  7.8324101090504374  1.5702843230926498  8.0417821663131512
 11.0491107151680978 14.1604337664017326  7.9812876027664208
  3.2700939362256358 15.8927928772400904  3.1121354926063227
 12.6047723993006109  6.2359980828639694  9.6016123918119600
  9.5099308234864548  9.4127299986503861  9.4249373090053883
 12.7495180691257506 12.6630183531812310 12.6395305454059876
  7.9109298737704750 11.0854418954503871  1.5694244757024918
 14.2343358979601309  1.6045729783833036  4.6804230790951307
  1.5642246073563471 11.0526953190060233  4.7333518771632717
  1.7100525142241254 14.2851740436076682  8.0093152493333726
  4.7497743530193990 14.2542095741197574 10.9616300122440702
  1.5294037302224264  7.9315375268521144 14.2585389159288081
  7.9218471966354507 11.0614940388894212 14.2264245162131129
  7.9288997688069740 14.3731444721201953 14.3807278608669709
 15.7814611815736754 15.8612896505892671  3.0702092881597740
  9.4980360925642024 15.7774054264104073  3.0621435247836803
  6.3169371707326478  3.1501729662743374  6.2857711463358896
 15.7903974715856634  6.3366608993797877  6.2795466349672955
  9.4670985246263140  9.4620351817623440  6.3575084032155083
 15.7662961668742891  9.5789814487411000  9.5436820397110296
  7.8509537176152842 14.1530049156157354  7.9187999565107345
  4.7340318596107513 11.0352353910116374 11.0663456772865842
  9.5679430828869254  6.3427063458478026 15.8457930743518780
 15.8125180134212489  6.3778677012610379  3.1392638972612286
  9.5125794528799581  6.3371498732672391  3.1663551020981391
  6.3864001182328929  9.4784278212266493  6.2847797207779328
  9.4985699420508087  6.3666992682901880  9.5298926383928375
 15.7820984245947162 12.6133469860280130  9.5421991274130971
  6.3585199922058671  6.3632667588194645 12.6892153658511830
  7.9136632308574422 11.1036537492668312 11.0459488864309456
 12.7054495197011512  9.4639266448050829 15.8371319871261651
  3.2088211200758985 12.7137596929083685 15.8069600105684334
  9.5311215311883117  3.2084599309955930  3.0791534105678156
  9.5186135457094387  9.5256899313076051  3.2130777277309148
 15.7514562480967779 12.7159710565598694  3.1195767243659036
  3.2186300812123165 12.6907184186745976  3.0829408060423016
 15.8646407371786058  3.2089354408819784  9.6614635531791109
  9.5218124228642758  3.2270195906301309  9.6008897468850627
 12.6745530818640635  3.2007090510183875  9.6209527886251127
  6.4020269620152765  6.3492742034941339  9.5960442970892803
 15.8877471867449227 15.9460767870516165 12.6883524624324213
  3.1299923614878766  3.1989662380928707 12.6578261214455878
  4.8430811465133985 14.2657824662719896  4.8386545242504715
 11.0939039357418761 14.3338668618997751 14.3400263233484306
  3.2114256668397232 15.8348083594019649 15.8307833869026968
  3.1622748198752948  3.3016575487192723 15.8233957395515255
  6.2960148787375827  6.2766874370293149 15.8288544950442187
 12.7196068669007598  6.3282467300261835 15.8198377884281438
  6.4076370722652731 15.8541372460686993  3.0960685823628444
  6.3326028957009628  6.3471296658941689  3.1877802584432255
  9.5082771518495015  3.1654033812060787  6.3696149695325008
  6.3558910601250327  6.3947191897740900  6.3095234665646256
 12.7083025449964655  6.3839928606304452  6.3111422144060967
 15.7671163066753692 12.6645540293699241  6.4031030466808607
  3.1668301441338560  6.2883776650034839 12.6921026553516061
 12.6973236648965067  6.2712356625228800 12.7362763744902807
 15.8606956906852261  6.3089180901007786 15.8325221390205382
  3.1999811191783243  3.1917107439149919  3.1001391375346774
  6.3397069604628191  3.1614915623945574  3.1152113585782168
 15.8117885039701189  3.2231567751689445  6.3056801653634924
  3.2137462102640502  3.1622917845272838  6.3035257741381985
  6.3497327563824779  3.1973608155911988 12.6782291839847741
  9.4945400924134979  6.3572816871600581 12.6713053834980887
 11.0948400186948160  1.6083852336000621 14.3387882759707086
  3.1576781037809534 15.8967997189216863  9.5766237670763807
  6.4163410302756754  3.2366178494102971  9.5686798299080262
  6.2840700788921957 12.6424641085097083  9.5105519550474309
  9.5156023420118299 12.6832412645180259  9.5291820535432628
 11.0982214980019993  4.7585457600627548  1.5513928144645330
 14.2577579111763946  4.7777470571439098  4.7252399791659494
 14.2458315503692585  7.9093194614800986  4.7330556899571281
 11.1090830187407263  7.9189938543433929  7.9440373359100214
 14.2922835486645248  4.7407848907410877 14.2745252657141588
  4.7723629001243424 14.2965562843926204 14.2645899479547165
  6.3248179331439101 15.8354814348506476 15.8359024013582914
  9.5266605926925898  3.1852326568123535 15.8863443208351516
 12.6549638045177453 15.9011857094774882  9.5007572834999365
  3.1794266452838125 12.6352026663407635  9.5192058485385012
  4.7500996575747578  4.7788347069976300  1.5650378104199318
 14.2497924646463421  7.8764204752118365  1.5729638717014773
 14.2356276317448049 11.0792836759377913  1.5497654592576626
  4.7916366650289106  1.5765291315113881  4.6944835200631845
  1.6125692380070100  1.5925612357036616 11.1290389520170407
  1.5780110194482719  4.7677732544461522 11.1619118423896744
  7.9217596263584626  4.7908136114078239 11.1130454980095887
 14.2683382391315625  4.7531596704921810 11.1760189661534870
  4.7593341254615646  7.9292501520498782 11.0931400749336557
  1.5624504728390933  4.7634083892040167 14.2335833357115220
  4.7409669696002856  4.7565444292071026 14.2317364990552164
  6.3457903356905305 15.8188840035142437  9.5536136444537245
 11.1045272582366046 11.0440083868826946  1.5859749780428190
  7.9408935327418098 14.3126333166898441  1.4690884729299030
 14.2205136605188951 14.2732044675246179  1.5210522062357461
  4.7571746744595709  7.9036349014994833  4.7247460852883014
  7.9490721871286407  7.9142787676766551  4.7654478946651126
  7.9497195292552219  7.9330761502272313 11.1083414455709910
  9.5103186808689060 12.6648754778321528  6.3803951264787955
  3.1511688105828002  9.4214368272947588  9.5930649003717825
 12.7009218750639086 15.8876830374591123 12.7466813804728858
  1.5656694839698952  4.7793917707458045  1.5741174033286651
  4.8004869418079688 14.3181751871136260  1.5427521213164768
 11.1011640785151737 14.2872591030378739  1.5320550974322131
 11.1326304237630005  7.8904261955748956 14.2552548317126782
  9.5148304555857184 15.8628022809554228 15.9073212799769976
  6.3684630940081544 12.6069304138400327  6.3454872487550187
 12.7150246712718857 12.6141904856066880  9.5520214735613180
  1.5683909709885515  7.9002868371877364  1.5436673678765900
 14.2406948468642511 14.2709853594173719  4.7064216353213659
  7.9053771725102049  7.9203483110484276  7.9339765327907044
 14.1746748588108762 11.1054150710568411  7.9751813550237269
 11.0849540905618031  4.7966882401490016 11.1172196806499937
 14.2116194923089179 11.0968804189711872 11.1119599842258374
  7.9415696249062586  7.9071160623968213 14.2595958382649499
 14.2731930278193690  7.8912572985176972 14.2572782405597831
 15.8180491731780517 15.8833406891824822 15.8488670534277851
 12.6371434179152100  3.2618950641251767  3.1033790537958605
  9.5085936568571352 15.8436962221012951  6.3866420869045273
  3.2284293203746386  9.4863945969098911  6.3209436370621743
 12.6888944008005815  9.5391834157239472  9.4965313442795622
  1.5977184470215817  4.7860959095162974  4.7241701137504641
  7.8876359888498238  4.7339852694134175  7.9420792154210513
  1.5181170174252860  7.9150572186255204 11.1203367659990580
 11.1264596484552172  7.9370069454302019 11.1243667166688791
 11.0902014103916500 11.1104477327393312 14.2630127480343543
  6.3760603650915693  9.4447197744034934  3.2696929204924889
  9.5397786591370526 12.7198009825355527  3.0886309067196667
 15.7819268730011810  6.2455492378239068 12.7446452810897899
 12.6752665517856133  9.4710715975372626 12.7426925522576493
 14.2444151654890607 11.0857270619068817  4.7349356953514192
  4.7949960056367935  4.7313224058085419  7.9836080222124366
  4.7766783287619088 11.0686593081649480 14.2096464975823107
  3.0914415086374412  3.1816813075021009  9.6138358399005188
  9.5109607972821966  9.4080293697700395 12.6987579547261138
 15.8485808653147302 12.6841027705983258 12.5962940179376623
  4.8105597751035081  1.5959755311669077  1.4853216296138447
 11.0891775096134761  1.5888520210090442  1.4786869730132435
 11.1566062738634617  7.8992737195654437  1.5972607254647320
  7.8469788259609921  1.5533586108969124 11.0481145972456396
 14.2410577747550757  7.9033064122220127 11.1392218679032933
  4.7745590834450136  1.6124651123184914 14.2812083819199689
  7.9630056846446085  4.7300894294539493 14.2845817728386191
  4.7107439834516009  7.9019943637924204 14.2648902107344018
 12.6978987354993613  3.2640097948372775 15.8681636790634961
 12.7253168277209330  3.2397452687989339  6.3188555967913960
 15.8403227122196544  6.2353017798553010  9.6029386140731869
  6.4046894529232326  9.4195922410373338  9.5342516402687121
  9.5232929547981158 15.8796860786965048 12.6774078863013901
  4.7824228596210290 11.0476722816408408  1.5525952290342271
  1.5675528996200090  1.5855517766614755  4.7128669694887755
 14.2623833902521238  4.7565512255463513  7.9668648261256054
 11.1674851901162366  1.5030373898229674 11.1471582957674311
 11.0462628117143034 11.1126718622304388 11.0577264766223919
 14.2455585732269387  1.6309619352588265 14.2655908279224821
  6.2845250962571191  3.2623332525214699 15.8290704623650704
  3.1415124505348544  9.4920692522252459 15.8484361212235836
  9.5541185055171240 12.6918714761885330 15.9453324222487893
  3.2194723328462747  6.3448811834376677  6.3526269621411053
  9.4857581571533256  6.4326371799889861  6.4031039669382404
 12.7401675802996781 12.6589860018435303  6.3688437153215887
  3.2039103215420548 15.8952107984141335 12.7014649693431654
 14.2880527180953134  4.7605813337576803  1.5606076383719925
 11.0987742044451760  4.7676207432986901  4.7621874220214648
  1.6346530483013286 11.0676627639215059  7.9887639095156278
 11.1823840902143843 14.2683181828711678 11.0306662250301795
