Mo Nb Ta V  W 
 1.0000000000000000
    15.8515778005355408    0.0000000000000000    0.0000000000000010
     0.0000000000000025   15.8515778005355408    0.0000000000000010
     0.0000000000000000    0.0000000000000000   15.8515778005355408
 Mo  Nb  Ta  V   W  
  50  50  50  50  50
Cartesian
  6.3620505581563442  3.0378639027259844  6.2811518510646946
 15.6788495592384187  6.2919931014291377  6.3342254467023436
  9.5279981636388094 15.8720664161867973  9.5156225643911281
 15.8266263230068116  9.5189238506165186  9.5098181331114429
  1.5352036467262773  7.8590231220364206  4.7821456639136759
 14.2468046546793587  1.5909032217994001  7.8761170926886015
  1.5376915090689469  7.9056252199629613 11.0615168222796871
  4.7739936842802484 11.1355392424878854 11.0977529440599465
 14.1655832866399756 11.1204580405845412 14.3238471020935982
 15.6755689709905219  6.3288499558724771  3.2534340453673427
  7.9372457193651629  7.9737405581919969  1.6385117633087136
  4.8060345010627055  4.6017925693886834  7.9610411049784444
  4.7887841274582383  7.9414909008273904 11.0993155728926407
  1.5850801750989247 14.3166418719546940 11.0944457875264231
  4.7450862297695737  4.7449160895806362 14.2748955054778861
  6.3371184879618729  9.4571418765253945 15.9387025423135906
 12.6183523784685594  9.4362288167550314 15.8765394990320985
  3.1725917617135337 12.8196578559605694 15.8243580207379839
  3.2304498093482215  6.3832358828604399  3.1732591076816852
 15.7708783741353713 12.7964056460768347  3.2033101464524769
 15.7965644419484654 15.8219895728831617  6.3178147925432944
 12.7764906525948643 15.7776383775617219  6.3360411697347638
 15.8041696368859537 15.6939921357914418 12.6778759744261293
 15.8658786856733496  3.3060389432999919 12.7403954940898814
 11.1593386189619022  1.5593369393664964  1.5562674225542217
 14.2333603669296878 14.3569167792190733  1.4907255763348177
  4.8648687965696151  7.9615407084657859  4.7164953256154103
  4.8439608373113829 14.2369021829899562  4.7402058596042531
 14.2903497527881260  1.6018757362236493 11.1526072343802589
  8.0322899890503159  7.9889487363743390 11.0629343606942019
  4.6928639598260053  1.5396082576848813 14.2511210637917429
  8.0084083402303534  4.7256783576742221 14.2202160929953862
  4.7944018335076750  7.9256828937899364 14.2793567678363580
 12.7119365555143737 12.7726078400569154  3.1744203939646556
 12.7358812427219910  3.2942930363653518  6.3619534991605793
  9.4233548178773674 12.6097879917904105  6.4055938415093792
  6.4404723771559853  9.5633394386630997  9.4706044384620416
  9.5953191544937155 12.6271716102924447 12.7534679394335146
 11.1334969799726782 11.0842242610766828  4.7639272201311069
 11.0135361545820469  1.6760734605210597 11.0836669134592150
  3.1972621132420440 15.9206555303267123  6.2476978905676344
 12.7866686690848521 12.7211443820564316  6.3415741257553186
 12.7337011442096735 12.7698682507206112  9.4856101386342377
  1.5154963264858656 11.1487967880931933  4.7315025711747030
  4.9243869066174568 11.1679348075025739  4.7046313402803390
  8.0373464582308269  7.9718095271423568  7.9647595250289092
 14.2263842064054362 11.1076737166093782  7.9255931185495720
 11.0248285331160290  4.6755067844459282 11.0712096791008445
 11.0565932952837382 14.1729018229281873 10.9973999560541422
  7.9438599668920018 14.2178148354137512 14.2918468618207850
  9.4849673809554744 15.9130141520722521  3.2472481785322396
 12.6480672479641303  9.3978642370667433  9.4902906249444428
  1.5452444889008559  7.9026580267902231  7.9043855880478402
 11.1243854616701761  7.9665624594795439  7.8959403591129611
  7.9820278584418300 14.2819036542984428  7.8607860268758420
  1.4689062831730211  1.4740752974442086 14.3216902756328892
  6.2311790546424302 15.8389589544492999 15.8636180383638408
  9.5746202758523360  3.3381633521196528 15.8677044865125438
  3.1845082577253749  6.3164712436070172 15.8680489030906386
  9.5739594217056698  6.3616486139891482  3.1077414854704157
 12.6768700664958427  9.3500781861877513  3.1553289661431232
  9.5578480809483928 12.6610289927127475  3.1394938608418945
  6.4618254038476559  9.5589545320590350  6.3516548291024773
 12.7349018465637531 15.8041310798870249  9.5313076531240970
  3.1345197004500669  6.2813975974783940  9.5592558755647907
 15.7851485034035797 12.7585665567371507  9.5170517448926528
  3.1310902217658643 12.6989976409830270  9.5876795153567436
 15.8863670998093163  6.2349101436874825 12.7202810119208358
  6.3872535921570188  6.3762501501361397 12.6634528087683922
 12.5563427420387335  9.5127461369849442 12.7059660204265832
  4.7162378678756962  4.6957720428720062  1.6608749885905192
  1.4787740317816407 14.3908467232746293  1.5916266689112337
 11.1490461439553705  1.5656980832614014  4.7743389560460097
  4.8374818724153128 11.1531221377413381  7.8632786022795411
  4.7487332066461949 14.3469246406434934  7.9057150443999573
  4.6592663243456469  1.6090726877107306 10.9966813832571102
  4.7325241225657884  4.6693927129920869 11.0123860239770011
  7.9926381802914896  4.6276557079694767 11.0398988618880569
  4.7667308323349777 11.1133609285385262 14.3002752237322923
 15.7695765872970721  9.4364547890185531  3.1551921407489587
  3.2328705961805553  9.4913977932633440  3.1958076131854010
 15.8297398809048744  3.2023314517207080  9.5207907168811303
  3.0202574165282048  3.2649032440825625 12.6900956159778495
  9.6696088133729408  9.4716205927444541 12.7307865536297609
  6.2706844236904891 12.7684976433355910 12.6560796987436923
  1.5670535790114550 11.1092885263829579  1.6171189486696997
 11.1264930854365645 11.1738592912324517  1.5015118828509868
 11.1466217184191709 14.1761504185586862 14.3535512149049840
  6.4123973918837516  6.3140603399855602 15.9240579096729178
  6.4175308675904859  6.4072747817999094  3.1615420975428243
 12.7323067798411778  9.3836099886643893  6.2729789436760512
 12.5538740149493098  6.3006696243528735 12.7674269436566838
  3.1228821019127029  9.5455836928194984 12.6394550932285803
 14.2469648755982288  1.4806304455982477 14.3441205203976985
  3.2295977258358843  9.4438147849292768 15.9331074869536469
  6.3330329185218677 15.9475427172655877  6.2735482667343314
  3.2107242623793502  6.3331367501427627  6.3647966013081145
  9.5663275719511969  6.3834904389631397  6.2777356689047243
  6.3554168558192723  3.1251566054330149 12.6450316917885353
  1.5335389470044960  7.8734115340064186  1.6288687802445019
  3.1729386738198926  9.5480678703568671  6.2810304090257416
  6.3704312736372160 12.7229481908499711  9.4967220504960785
  1.4470453560056318  1.5726398962806709  1.7242250269422097
  1.5444950816638627  4.7026768017572484  4.7067915078771119
  7.8579260855785424 11.1157833376026964  4.6499330350623733
 11.1041515903074153 14.2451528886377581  4.8349091526781445
  7.9778473579069811  4.6369365410975583  7.9520828105991841
  9.5725313044746905  6.3241675752505238 15.8916721625228838
 15.7572893729816172 15.8048630741857750  9.4983807424428139
  7.9621529057794884  1.5718289149047184  1.5465973520902210
  4.7395672650954381  4.6551939696155662  4.7124689491362810
  1.5937127153892867  1.5703972868454050 11.0942930318888973
  8.0553470678530381 11.1128212897740699 11.0512583513101799
  9.5637681621667205  3.2181212823833021  3.1253156242490419
  3.1863474692762446 12.7671375254898543  3.1693954795901633
 12.6735633549191817  3.2144407850673806  9.4710489242088123
  6.3695953226668482  6.3653781378513745  9.5041302796018385
 12.6830178790119952  3.2312653358494319 12.7129953303606449
 15.8746745059339904  9.5880473878830124 12.6432146636619311
 15.8280086022805850 12.7019345009341986 12.6696582160177300
  7.9654883911929710 14.1915177397381083  1.5464428126124405
 11.0406820281504601 11.1164784853471659  7.9512924808064689
  3.2311552764260019 15.7829232202006295 15.8938349511608799
  3.1427828945383016  3.1236044747195786 15.8483389761541851
 12.6656932915076670  3.2420557941287464 15.8988977132335911
 12.6293424143211261  6.3221032878114913 15.9466638524455231
 15.8134375810618941 12.7337212566153308 15.8436220034028636
  6.2759011645013647 15.9108180652757625  3.2237729919901432
  6.3842193923938613  6.3914442761414998  6.3505334004194243
 12.7641997181752593  6.2761174425457904  6.3259286849437739
 15.7613588182890663  9.4715068142045205  6.3197908066930957
 15.7823027394997144 12.8006666868734822  6.3156996812794830
  3.1441945474731967 12.7299298782837020  6.2673109551956721
 15.7848731985739512  6.2981573176510741  9.4386026257786693
  3.1201044220377314  9.5719971949269667  9.5691019987231503
  6.3254095243521551 15.7930737282755569 12.6499235167829500
 12.6687788993047210 15.7725624226684751 12.5707206921821601
  3.1190743110206935  6.3231024335310826 12.7159213325709448
  3.1426731220891169 12.7581035255295827 12.6870719329043595
  1.5147447799021292  4.7163979595347705  1.6973184425609826
  4.8624340689070120 11.1078106716114871  1.6379495426168393
  4.7159871991939211  1.6038649435889138  7.9936081028099002
 11.0625936941471981  1.5647271080372778  7.8626121995673133
 11.0542970165059220 14.2652450221593323  7.8974147548364328
  6.3370908069226184  3.1605785576579271 15.8294489015318369
  9.6010126600829402  6.3545710851505852 12.6964639976999507
 14.2767646559111245  1.6216139597630881  4.7028703547769846
 11.0846357790149348  1.5493032693172695 14.2661184121804325
 14.2253299384551930  7.9175700769505450 14.2986524447652066
  7.9754684024438793 11.1289117243099653 14.3507875380483760
 15.8229733733579625 15.8151723715812196 15.8683704497159841
 12.7096742525709043 15.8675039843615586 15.8311142582503077
 15.7372091896436093 15.8505029592210445  3.1776892170900539
 15.8022583513420916  3.1714223150019829  3.2311374223733695
 12.6725860987114451  3.1816392740935919  3.1550602991692402
  6.3531524771707959 12.7452229519457152  3.1399708426408686
  9.4683742485022862 15.8912786982002832  6.2924159960996811
  3.1454760638585610 15.8443072584060438  9.5142750392600313
  6.3584080310034592  3.1518454983071331  9.5196884180730397
  9.4603844876697352 12.6826783382260864  9.4315034023067046
  9.5349374208558952  3.1869811835240776 12.7046548011742537
  7.9309054102683278  4.7453654219277031  1.6153439842214161
 11.1594083266223514  4.7699322074583792  1.6434898134026712
  7.9869225927859802  1.5923206457448054  4.7466762452894109
 14.2747917437467979  4.6755082635222616  4.7449977020205463
 14.2205257766386275  7.8703908980975328  4.7295041099333064
 11.0572896595786361  4.7273004215517105  7.8872161486917669
 14.2317173364392069 14.2859839840240710  7.9164287100721253
 11.1072382743683402  7.9343987293525418 11.0671367028354322
 14.2271280485014131 14.2195696467156800 11.0830045197655735
 11.1077907337263539  4.7570338633145397 14.2764434562166205
 14.2353557332002083  4.8109070675275216 14.3241047459757755
 11.0894184011990919 11.1269349308270158 14.3951265533336787
  4.7479720176150302 14.2652650553575473 14.2582949995170232
  6.3477671862900467  9.4440053716944732  3.1901937624914596
  4.8215037461626453  7.9573225296257144  1.6259458604812753
 14.2494640598020386  7.8860139718602857  1.5840670253150935
  4.7390478336055635  1.6650870825047326  4.7526234977972663
 11.1524872690057961  7.8753455245976758  4.7612281263455714
 14.2500651116194437  7.8806631782641556  7.8950863456075560
  1.5629034158040944  4.7147766913458709 11.0804509822067931
  1.5401517472498574 11.1427646181634863 11.1120032350790581
  1.5444779489570915  4.7620750513972672 14.3456467890711235
  3.1153584576153701  3.1586017466311698  9.5187223907376026
  9.5803866376390694  3.1613011203918009  9.4685306272531733
  4.7428790015805999  1.6346475927370954  1.6313767432624644
 11.1126462498036886  7.9286981022352645  1.6122219151864983
  7.9492553891706255  7.9805699356751276  4.7159831243689867
  4.8199270568857546 14.2647904419483318  1.5957901276750341
 14.2550711629728131  4.7307926331257386  7.9039719500329912
 11.1316069010475793  7.9044220765037210 14.2926270070582966
  1.5664610998329702 14.2970794728799167 14.3053010907198033
  9.5751130082202636 12.6486261162847065 15.8641963272397692
 12.6753269290416455 12.6582811377489008 15.8373917731901273
  3.1724088090077491  3.0753208360072044  3.1818457651888581
  6.3824175161304080 12.6830590990325440  6.3705282450478533
  9.5591440825438276  9.5097348281598162  9.5386773319246370
 14.2438922561461609 14.3425932643282810  4.7270122144685827
  8.0165782847760649 11.1023330941569061  7.9639287911172323
  4.7141404771736788 14.3229495085179721 11.0556153080952964
  9.4673725244573923  9.4896076457672631  6.2538095312951398
 14.2852787543655513  1.6020758140027553  1.6405824374860629
  8.0111901484194554  1.5877863625397080 14.2268209980383435
 14.1747156318235508 14.2712776217871600 14.3191806652594291
 12.6739607176013198  6.3615076802453538  3.1523458011115455
  9.5891349295844481  6.3367966522530779  9.5005772270802993
 14.1859694268697911 11.1328199957217446  1.5809727055973815
 14.2301196356292277 11.1024172087897490  4.7032899335632798
  4.7633187077779846  8.0032271835223767  7.9645804081751992
 14.2338061753366780  4.7816321139389437 11.0951382544286581
 15.7982736272697011  3.2062938898348374 15.8407835158643664
  9.6061767581570123  9.4704250459637080 15.8576911203243682
  9.5700817546881218  9.4564852092875569  3.2005025372291436
  6.3513941876140949 15.8285255873798629  9.5704180825893275
  6.4158282403692839  9.5541357029100702 12.6852854184625823
  1.6355029875761888  1.5630261468087641  7.9948405206468873
  7.9624071827841210  1.6499335631926173 11.0559045931823032
 14.2309857459141860  7.8761609519611868 11.1481366382331863
  1.6044747593608442 11.1367319511454177 14.3177789842309142
  6.2992108843879562 12.7630149638009662 15.8530382800812788
  9.5382280657099621  3.1737871735031002  6.2922870709587979
  9.5466554300564948 15.8245066883131926 12.6535165684244113
 11.1249119024018217 14.2534442221124102  1.4739269076356185
  1.4932173419688672  1.6121868242799171  4.6433477012557454
  7.9283796600544223  4.7447714866421684  4.7717527354878495
  1.5429426714135754 14.3829094771165327  4.6769026481819642
  7.9790825920966375  1.6404134276733362  7.9537456757646314
  1.5884362178045297  4.6977180333818431  7.8902241268596081
 11.0262677902396558 11.1007556748691947 10.9509336101455066
  8.0076460668375198 14.1961269884420016 11.0731401837271086
  9.5280636633400864 15.8253044381800052 15.8080413390207486
 15.7568306801922091  6.2855429278525978 15.8689413105999204
 15.7830811072536576  9.5201872740682578 15.9115561758817279
  3.2949855392785015 15.8902987933779851  3.1388643904408715
 12.7167445328050555 15.8161896411448648  3.1561790829393734
  6.3874987442387265  3.0859551744804246  3.1790544633138946
 15.8289825424047343  3.1692270510548086  6.3369961101195260
  3.1493588188570332  3.1138642651429653  6.2998920312835347
 12.6783339524033281  6.3045763196633535  9.4241724361484192
  3.1838304604631182 15.7505868536802200 12.7354514614715484
 12.6723035426580246 12.6555271846412634 12.6648538390416689
 14.2747768562724922  4.6802225177804981  1.6742472589942092
  7.9019104576994881 11.1176872751681408  1.6082517637612754
 11.1652291727789397  4.7261860906910211  4.7184661608709781
  7.9111563229811646 14.2339423223023402  4.7899204882386242
  1.5374253512813834 11.1243827698910085  7.8954755484462185
  1.6225053125632547 14.3742428589974143  7.9139069929163419
 14.2192351848229084 11.0944295507619408 11.0728431549014488
  1.5188716118568213  7.9206604606401623 14.3380249551712939
  7.9825967499657402  7.9674722905052171 14.3027611441128499
