Mo Nb Ta V  W 
 1.0000000000000000
    15.8515778005355408    0.0000000000000000    0.0000000000000010
     0.0000000000000025   15.8515778005355408    0.0000000000000010
     0.0000000000000000    0.0000000000000000   15.8515778005355408
 Mo  Nb  Ta  V   W  
  50  50  50  50  50
Cartesian
 15.8094290738687384  3.2256589225177654  3.1516893313699930
 12.7771182404165824  9.4583272335030468  9.5669109960208054
  1.5207146929417592  1.5757044507211453  1.6037785552589094
 14.2470253559705959  1.5483794645224656  1.5538205980526825
  7.9641077561173788  1.5515783676233352  4.7903964451715790
  1.5890898377619431  7.9700402839337396  4.8138544285409113
 11.0462796395124094 14.2913490857966234  4.8183058570850452
 14.2215810212217875  1.5584392354081129  7.9631522334276017
 11.0799517046824771  4.8664062491523534  7.9486888478820230
  1.6194990994233174  7.9617821659735144  7.9531860408472790
 14.2004602699113605 14.2902712893054904  7.9970031300867097
 11.1294549578202204  4.6990043337591345 14.2449075798150364
  4.7549418289279650 14.3488521644027252 14.2629727234237169
 12.6732884016560234  9.3621089378513727 12.6428447148928065
  4.7490447661602744  4.7217917494590500  1.5312242983036028
  4.7596242762249643  7.8859626244246606  1.5245877544479676
 14.2133827070931815 11.0160523534607950  1.5157701590814194
  1.5593343552847456 14.3327576470754749  1.5921887467291069
  4.7786006732070172  4.7314876807678896  4.7181924245874383
  4.7779999364539298  4.7576700186741983  7.9705088054174036
  1.6510990726746833 14.3185791254715493 11.0843795759655794
  4.7571784463135689  4.7312543437545198 14.2268154775531777
  6.3546249771918664  9.3628746164932757 15.7014103136156358
 15.7442714339039256  9.4381348484027932  3.1802602593916540
 15.9151350990076086  3.2023017070341240 12.7886626348974133
  7.9324809811038346 14.3247795452179183  1.5364217972417460
  7.9654629928790115  7.9030612854360376  4.7303821894642040
  7.9598753949537846  4.7258343334712460 14.2562927708256506
  6.2741019090321348 12.7591808210574005 15.8928097805111985
 12.6878802892059372  3.2554747686286873  6.3486804228699967
  3.1800471198732247  9.4792333421014146  9.5405790176551992
  4.7747363355687638 11.0572534845679247  1.5161269053720730
 11.0953329201554105 14.3676490756712880  1.4580355298906227
  7.9747499954296073  4.7664318421506549  4.7229236802077130
 11.1161866985089084 11.0472335493597704  4.7816550077157833
 11.0450767948773176  1.4555939708428385  7.9877850693084858
 14.2397207531751739  4.8180303428333131  7.9420165787622858
  7.9645738129689834 14.2854114921079702 11.0124366325240093
  9.5142569272555466 12.6561177929653361 15.8224933217458812
 12.7274547819540249 12.6971682099949863 15.8086454038279633
  9.4801080308066847  9.4021907182019824  9.6486895432548216
 12.7554424078093138 12.5872192565014007  9.5399718279246724
 11.1270832169626583  4.7717229786561344  4.7487540448515562
  7.9369430094706743  7.8907175649186048  7.9605192872897437
  7.9754109538300995 11.1211036248466737  8.0266451102380465
  1.6471933825746647 14.2898647623956112  7.9815104879479417
 11.1435902983489541  4.8019052996284612 11.1348256725020018
  4.7624539175631853 14.4180941383062802 11.0024416243925778
 11.0650625377442342 14.2481759293344599 10.9923020772369409
  7.9714154455662687 14.3236449551905984 14.3099660632138033
 15.8693508421577079 15.8357569527069071 15.7389547175191158
 12.7099861085914654  3.1977316804212039  3.2203812979306772
  6.3442212142960921  3.1420973546643953  6.2818364354938119
 15.7203959564882148  6.4013500843520692  6.3287728013725477
  6.3188785448642033 12.6842758390610992  9.5218911702315463
  9.4770141946889677  3.2451244180265872 12.6282635783670205
 14.1709366576614926 10.9724919415869628 14.2683398834526400
 15.6904923227515987  6.4264347313194907  3.1990448975582013
  9.4799317243545378 12.7211914815161276  3.1729784218461190
  6.3070998912834497  9.4865311138532764  6.3107846872369358
  6.3482338262722662  6.4087421085875995 12.6207990930593752
 11.0901459621856979  1.5758335270087633  4.7594362190702304
  4.7199576488249813 11.0222844426780142  7.9074268330737505
  4.8183627304698033 11.0147205558678500 14.1764166912765948
  3.2352206814274389  6.3818104603402546  3.1954270506043834
  3.2222918214984411  9.4523078555787485  3.2497995675964066
  3.2244500031053245 12.7508774270430081  3.0604099803858942
 15.8059759499468999 15.8064242339523950  6.3013692678464155
 12.7062143785022563 15.8225774590305690  6.3233151530315297
 15.9026408935123893  3.1400143557091869  9.5423760033236213
 15.9158324182689164 15.8416544335357958 12.7275568216897099
 15.7062777812254364  9.4469049785487869 12.6615029766566956
  9.4980173367118397  9.3420719986093612 12.7274774944444378
 15.7888280971253447 12.7280027172280512 12.6443834191912696
  6.3656541858330575 12.7382762150166418 12.6875378456727343
  1.5869543032171078 11.0399962017790578  1.5570723163827822
 11.1599220774404131 10.9689786803211646  1.4440117689182501
 14.2733763263025430 14.3290856427756914  1.5315889788727477
  1.6595668598039377  1.5595578448470597  7.9875192034019120
  7.9121700838995102  1.5379215930771086 11.0090683810619705
  1.5862388389270825 11.0746325580281866 14.2291856120135076
 15.8513656025595466 12.7340793736282141 15.7441624191040379
 12.6660170830332106 12.6999043735386561  3.1868741479147453
  6.3210886668259150  6.3762611388153649  6.2980537596128476
  3.1077809335146700 12.5766119885916634  6.4247719219224466
 12.6338844349694632 15.8485171922908670 12.7110863319156344
  3.1529342815347792 12.7814149096143641 12.7020313271423717
  1.5679472267342904  4.7864486948037772  1.5810917704222673
  1.5409812048306175 14.3323961627930689  4.7163776596990674
  7.9463162335262094  1.4631155184257310  8.0082810060635214
  1.5742975539835842  4.8063914864337782  7.9617078730851478
 11.1239747186117608  1.5713343573993106 11.0909871727481182
 14.2029686742143522  1.5690389476398405 14.2340541220002663
  3.1945209795691856 15.9134559990895070  6.3146200623107278
  6.2352319031084367  3.1428089021665877 12.6135851050156180
  7.9711926277753449 11.0503471989423332  1.4734905600319748
 14.3080160556228559  1.5646880435106618  4.6838399500133043
  1.6232100871529829 11.0375135986273740  4.8219388359151338
  4.7122130580359505 11.0452482774035854  4.7973108818397963
  7.9076270467408438 10.9912097824192561 14.2444555843765528
  9.4388561762229841 15.8301844168795114  3.1707363507863171
  6.3504847816607857 12.7455306349693309  3.1216809707348498
  9.5150394792112980  9.4611206840728599  6.3277757637688854
 15.7502205259743580  9.5242083165891227  9.5164938326681323
  7.9574743429723815 14.3288314339830425  8.0155568082959032
  6.3379372496053730 15.9093043524371893 15.8572193485560415
  3.1588757766265676  6.3370483898920904 15.7432303778771665
  9.5604083795594743  6.3615213982684331 15.7741535825228443
  9.5878829611453664  6.3569136313139838  3.0869741953542986
  6.3370621180899960  9.4485615157650269  3.1300225736429934
 12.7033934841519862  9.3763026875255306  3.1554851476008574
 15.8843321063796612 15.8608573359600165  9.5785923786846290
  3.2442863854762947  6.3682019010528723  9.5995420425638294
 15.8166592750788446 12.6227919944221263  9.5339320246833186
 15.7942130088483985  6.3548108501396010 12.7576444673709108
  7.9400666230619157 11.0689680283379950 11.1080459436774905
  3.1989407446806766 12.7659770565663155 15.8573990920627637
  9.4587995615250815  3.2127852294245911  3.0708042307435934
  9.5886951346474607  9.4508393425263488  3.1345037980397383
 15.8015875498961087 12.6849597405049206  3.1536026260948540
  3.2398161352246326  3.1706073268806882  9.6827925059623610
 12.6501859020957106  3.2013993247767139  9.4794575582712746
  6.3694551364511529  6.3680392876070986  9.6282468879190901
 11.1071180841341821  1.5629926558824634  1.4548594704125521
 11.0577664375090645 11.0714362095508054  8.1019661726739347
 11.0760175552431299 14.3024461148362168 14.3471834826969040
  3.1433037906069039 15.8916614012628390 15.7907653882304846
  3.0825111647031105  3.1335992948528570 15.7596380872670885
  6.3940168965710642  6.3148688284025463 15.7894464060847799
  6.3266274322784772 15.8768606751166494  3.1670990090859310
  6.3963156914420791  6.2958305313013891  3.1001784891113138
  9.5545587339523159  3.1852217327043344  6.3875630572854289
 12.6941464774824890  6.3962609076005936  6.2913987399672919
 15.8207492434983585  9.5071148299526573  6.4294586072461373
 12.7153352993265898  9.4596341072407188  6.3758049534018673
 15.7993497450391391 12.6561525405268114  6.4320092821415651
  9.4717685336922219 12.6842729584785978  6.3152267365440649
  3.1892573681943093  6.3697534860940159 12.7056330485536737
 12.6838596565223085  6.4100495207480037 12.7470147860898830
  4.8454231018908587  1.5082218305488302  8.0404343552545701
 11.0743922464288627 14.3198640130145769  8.0763332761595237
 15.7805246321392332  6.3492275913235794 15.7832851170020252
  6.4086277182936300  3.1448338092832455  3.0973688307062419
 15.7837190040175397  3.2154738021310854  6.3119442210424408
  3.2034649838407838  3.1883821294817429  6.3075900584813525
 12.7321039825781614 12.6751768937327665  6.3613601844955170
 12.7267671824658599  6.4326113291841329  9.5700324546863591
  3.1875673528997464 15.9875649796710171 12.6499233406723359
  9.5104246456966095  6.4012344336434071 12.6490853436655755
 11.0438023601848041  1.6381482487766714 14.3396370119269658
 12.6944190087626740 15.8735204598515303 15.7883460102258795
 15.8199741430909171 15.8221173075382460  3.1440160003447342
  9.5095212469195296 15.8036688717332385  6.3551201305584915
  3.1540781964591913  9.4826961597605237  6.3727069271335610
  3.1851708985500933 15.9245419732045086  9.6055930877622853
  9.5121604031109062 15.8277530680823197  9.5766037987665698
  9.5064390697249692 12.6833994752537613  9.5445286000207616
  7.9834789893644436  4.7576852898908326  1.5188901769754499
 14.2417127668013794  4.8035334760011281  4.7463493071849276
 14.2412910018084844  7.9346543864864687  4.7791462953401815
 11.1364186805278713  7.9425993203437102 11.1286947439612689
  1.5597349572342245  1.5916008420217651 14.2315066664653713
 14.2338005246879824  4.7509170480723215 14.2288811072601842
 14.1720365011115810 14.2657338193779175 14.2555724080195709
  9.4532054654878408  3.2343715275513913 15.9074677651155767
 12.6822894309948122 15.9108286957901868  9.5506160290092730
  7.9873715710567277  1.5880879562631285  1.5167541391050381
 14.2220263215207403  7.9117686265876310  1.5313506694990562
  4.7864416912892063  1.6208912173525372  4.7607724696012772
 11.1121952335767649  7.9244255544163504  4.7397751926985645
 14.2533404236178427  7.9350803597656334  7.9249437446160123
  1.5957381590053474  1.6156025354915529 11.1137320907322792
  4.8092506388329159  1.5829005769395617 11.0638025262616431
  4.7627264571484993  4.8061774579840844 11.1594628229803945
  7.9063236927311378  4.7829920774166848 11.1352236376943399
  4.7839323719790023  7.9224610916724911 11.1595441901111556
  1.5563526324101375  4.7898012795192333 14.2560903062603916
  9.5644592499479977  9.4015993798385011 15.7849095870503238
 12.6828519443797703  9.3558216896955706 15.8545612328918040
  6.3524281511515319 15.8128250452071946  9.5605853715494682
 12.6716870407423912  3.2300237190940599 12.6916082504143528
  6.3697001964599220  9.3741887617818644 12.6986757522256433
 11.1510810695766320  7.9445924142287758  1.4787237277072545
  4.7840350710678266  7.9280241149572257  4.7572094695389024
  7.9000356110643191  7.9574155810222145 11.1584926194610894
 14.2576503591610617  7.9283961110811427 11.1278317576760788
  4.7343507092940298  1.6337259147316379 14.2794418073290394
  4.7938009945460296  7.8899396150816887 14.2186982108818682
  4.7527158869160990 14.3390521819253820  1.5591822160024291
 11.1161070443791399  7.9643392150923864 14.2991135155597213
  1.5939192612903417 14.3083588020412797 14.2194218902779550
  9.4493196359144953 15.8778367081384868 15.8910255993218676
  7.9440971028269969 14.2958603993031694  4.7958595906902559
 14.2833579838134206 14.2742005860494512  4.7121935706201894
  1.5924233623388502 11.0318981142395689  7.9686695666802247
 14.2325415238873987 11.0617771113995556  7.9811362676902622
 14.2171703655066750 11.0732838215127138 11.1387540192265782
  1.5404218266761167  7.8952406547256526 14.2299653961797574
  7.9585549679383796  7.9306686065616665 14.2180044483837644
 14.2191618971571483  7.9341708894995087 14.3072690062192507
  6.3198065361921811  3.2523355783506105  9.6137985282955629
 11.1396693627444989  4.7359881526755361  1.5004653578779905
  1.5738187443792042  4.7949143081854002  4.7499650293156188
  7.9097207207147573 11.0860087562180372  4.7019048914215498
  7.9448365851054819  4.7965292069882421  7.9427575149724126
 11.0898275269942364  7.9375691272729778  7.9963753405908786
  1.5509906098469424  7.9455796812332125 11.1160068656395019
  4.7877871485413985 11.0349145661275276 11.1621123339723258
 14.1898412001757723 14.3094923381154668 11.0697114080297396
  7.9992958428187713  1.6029973365070722 14.3084552968059011
 11.1086941857302168 10.9889489089509489 14.2992702353216021
 12.6795316875369952  6.4487443915720988  3.1680090027729468
  9.4546000093665796  6.3788989883358349  9.6853410772600732
  3.1564502189032662 12.6260284571473616  9.5058829204062878
  7.9875760844204100  7.9550201236099687  1.4794798370350961
 14.2651453439469282 11.0619785569763156  4.7592342782338717
  4.7427195129518349  7.9725778257174174  7.9450371961791246
  4.7750262241511656 14.3323585467905055  7.9624695945079642
  1.5628002537516432  4.7876401533437294 11.1466855282248130
 14.2561986038844903  4.7380571442502362 11.1729129085168353
  1.5732518842804077 11.0394942335797221 11.1424862365367208
 15.8711996588980870  3.2148065019607355 15.7680067478323078
  9.5101423317703961  3.2496060467128856  9.5181781673438639
  3.1624671199797829  3.1133841814505430 12.6792319728439207
  4.7330881310657533  1.6091462771813976  1.5482820470280414
  4.7524549263080242 14.2522788974123813  4.7633378714701760
 14.2015693567620218  1.6462784789046101 11.1625935023454375
 12.7577374004226822  3.2130324587721977 15.8171977845286627
 12.7067114277975826  6.3994122248087102 15.7684466186507759
 15.7823815753165206  6.4251763147096481  9.5776817379231272
  6.3506608153963029  9.3992528065065404  9.5810150061520769
  6.2986933266558598 15.9519567674984835 12.6959503768269499
  9.5199891514141850 15.8520105961445879 12.6872609590821703
  3.1992314859940021  9.3594682384005772 12.7028264734715215
  9.5197196641505979 12.6793751229531111 12.7015730072578279
  1.5238287320992108  1.5579434911658938  4.7031485111864395
 11.0526710562771378 11.0678251272955226 11.0799273622854564
  6.3938401325581564  3.1414537403121701 15.9060010612948517
 15.8161325519049853  9.3831231382645974 15.8109329383525488
  3.1743473992795694  9.3900287865105092 15.7294133358409294
  3.2651407113388573 15.8703794633175566  3.1685637087727798
 12.6705651881275490 15.8025084685777486  3.1634095452946807
  3.1926136725587675  3.1466599155159671  3.1835472889337986
  6.3613716284110247 15.8386240942319247  6.2879535303311256
  3.2098289805201534  6.3663581340513566  6.3328148208448178
  9.5921064955337005  6.3748685879229319  6.3127019480734887
  6.4177752658587117 12.7107358460943534  6.3462369829201073
 12.6910420990071238 12.6814271264465859 12.6717373035763590
 14.2462064838396021  4.7934952111970990  1.5672718822668092
  1.5672577368626395  7.9072433719361150  1.5633036015128314
