Mo Nb Ta V  W 
 1.0000000000000000
    15.8515778005355408    0.0000000000000000    0.0000000000000010
     0.0000000000000025   15.8515778005355408    0.0000000000000010
     0.0000000000000000    0.0000000000000000   15.8515778005355408
 Mo  Nb  Ta  V   W  
  50  50  50  50  50
Cartesian
 15.8630938528759806  6.2722452425029633  6.2537868681734308
  3.1201429829721086 15.9319983088273869  9.5364453472496038
  1.5948713442203097  1.6705215238765658  1.5598908092199195
 14.2522825600303786  1.6524047156153656  1.5322840224247509
  7.9174855345789474  4.8157526163977922  1.5608953559618528
  1.5822777512142114  7.9307395359062616  4.7728806518943578
  7.9339866072303860 11.1183487279050883  4.8325655705189066
 14.2449387746776530  1.6004719282994619  7.9905707260655161
  7.8980539441988240  4.7315862019286623  7.9574503710223254
 11.1080024313627224  4.7934917884057002  7.9041025362388169
  1.5617596611389433  7.8991995830212929  7.9168753009318378
  7.9421593183661319  1.6122945430188425 14.2563862630610441
  3.1736039915516900  6.2943423401956444 15.8514378365911686
 15.8327372065122383 12.5157453757722497  9.5168059870118373
  7.9320614076216893  1.6525242777396822  1.5637858190856895
 14.2403227882354582  7.9471849235729115  1.5629669676417093
  1.5940750593668414 14.2280027776433844  1.5664208231085859
 11.0811767345754184  7.9252703488589171  4.7643803597964522
 14.2572462860792353 11.0088922523474828  4.7460633545822857
  4.7929822861235234  1.6088612717858881 11.0162773767069861
  4.7471629810708933  4.7194616272845913 11.0654513009443551
  4.7554436928768844  7.9672066722548385 11.1474939678942633
 15.9260774910042571  3.2185087106592278 12.6998709975050286
 15.8868588382938842 12.6025800608881902 12.6636178182711649
  6.3412379587080867 12.6720233386663743 12.6663221476156842
  7.9588565795293738 14.2177491058750771  1.5800581629185437
  7.8525718345397753  1.5972858618912305 11.0261695404617210
 14.2255555917160432  1.5202681368987718 11.1169776191891021
  4.7388697441112928  1.6715326524650169 14.2332333250982330
  4.7315631536680609  7.9933630103876228 14.2654633365468282
 12.6194928359271223  6.4190867844456534 15.7199359518524311
  6.3259319332958119  6.3896476810150418  3.1433955105549001
 15.8289143071090876  9.5291922901641399  6.3875998337930424
 15.8844908039055781  6.2156987033179885  9.5806322434499958
  3.0824098589142075  9.5506981596442060 12.6407421084663660
  3.1149018483462019 12.5638829099257521 12.6725561553656156
  1.5857913589846722  4.8493326959223433  1.5626981989401114
  4.7669553111237937 11.0274125143235935  1.5323871336286463
  7.9063922097777990  4.8487989039584889  4.7475701166913815
 11.0383876389288087 11.0978279273069074  4.7939606251261253
  7.8779270827248133 14.2284494746763617 10.9679360667604922
  1.5870022291878936 14.2252726708467367 14.2393546833549838
 15.9404163994575505  9.5320649348693713 15.9471289213009548
  9.5467587630086488 12.5698434741810576 15.9694928643432981
 12.5999140901686850 15.7798889507164422  3.0926834581577940
  6.3805709244320754 15.8755080441335501  6.3185358322735432
  4.7953184703457055 11.1139347278962806  4.8011235658019995
  7.9419041982112937 14.1487812581754433  4.8595652157471827
 14.3009982299761749 14.2226772294662567  4.7644643003541747
 11.0929358402930980  4.7839982567063348 11.1220946482084688
 15.8180214335102409 15.8615962547565807  3.1115667128471958
 15.8574388747774915  3.3088054262734050  3.2153591027477639
  9.5515689125329004 15.8747608555380246  9.5504282434930143
 15.8734721065767257  9.6772454324622856  9.5062520373830548
  9.5488026761618752  3.1820794691202883 12.6238868447352530
 11.0430555472531271 14.1809191952437725  4.7734920685409072
  7.8671440568240660 14.1420082689774453  7.9535922836514708
 14.2029413335667218 14.2734087345776341  8.0728945470566469
 14.2736615161929858 11.0245107653180074 14.2588195868941110
  6.4847381927488668  9.4670709647921569  3.1502496710696533
 12.6428075040348435  9.5108392872695404  3.0995984941600816
 15.9111178901540065 15.9377683966397541  9.5541551023619178
  3.0819049356711394  6.2703601002812128  9.5170235351039594
 15.7892564025441224  6.2139359407871293 12.7365478724623760
  4.7697381418920344  1.6269678919276940  4.7587770316776528
 11.1143521019130045  1.5830594606241077  4.7462376484279680
  4.6915908394300967  7.8631087699188678  7.9320794881278669
  1.6436204626314739 14.1693343541878072 11.0595564061139395
  9.5016629347776504  9.3896048549674607 15.9262828748236966
 12.6381725183091245  9.4351664971354055 15.8637470535240901
 15.8935054873241484 15.8952760521825471  6.4447928506064400
 12.6875111570210777 15.8155324472719840  6.3377342578976403
 12.7184764553839855  3.2363165259063598 12.6097142512332212
 15.8428662434737859  9.5905591656311291 12.6912889962283817
 14.2582685065480721 14.2261315514671036  1.5783894627388932
 11.0409845154100132 11.1541182733248014  7.9884581297395512
 12.6778397479472993  3.3070497275785016 15.7145718950628304
 12.6029354703064094 12.6071847898043821  3.0703270514061547
 12.7258307216451332  9.4394267516317676  6.3842406461597454
  3.1619762806967082  6.2331437920696500 12.7345042499738241
 12.7252211104214972  6.3092460884185693 12.8076724027536990
  9.5057271661425418 12.6995720944355472 12.6301258495062108
  4.7878040601848317 14.2546726055555872  1.5751658899441821
  4.8165838466397926  1.5985952519369424  8.0563734069584267
  7.8256637201907751  1.5796428085700278  8.0436515803796222
 11.0752114592974671 14.1940550020175689  8.0193115384552183
  9.5565001063164861 15.8363296816868893 15.8672318087398700
  6.2795588188346425  3.3076196226142329  3.1710771380581155
  3.1699888705669217 15.9174408107682481  6.4186016583252457
 12.6555362612630518  6.3226453439192447  9.4876799782285985
  9.4520052974381219  9.3870090025575763  9.4777635616266558
  3.1148655494171607 15.9451355103960211 12.6648743468740044
  9.4429099423540244  6.4052208729232234 12.7032945341727537
 12.7426215149142514 12.5777651202648393 12.6064831329598199
 14.2832851617123371  1.5675228329914110  4.7457734873648567
  7.9162111406157596 11.2514507548354370  7.9454270527463073
  4.7336236648133454 14.1961725729966677 10.9857695917863243
 11.1607176369308565  1.5912090933792806 14.1973484989822474
  1.6190350517065570  7.9992964413705883 14.3146897003435019
  8.0075819576520164 14.2499527376404327 14.2648813091260092
 15.8965793710155232 15.9159986356217473 15.8158673631450437
  9.4896822383650612 15.8322153728839599  3.1432152679121308
 12.7231678496780187  3.2617094694367625  3.1923120236554476
  6.3462985403430441  3.2150598503779393  6.2918781747207664
  9.4783811500309767  9.4078772419146119  6.3543428911229487
 14.2109507141278879 14.2766320028445506 11.0644344257897824
  6.3584521280551032 15.9069463284167476 15.8296900999605228
  9.5570339453214963  6.4214750405270378 15.8149168066988981
 15.8339534264287494  6.4049571578124178  3.2226463641849885
  9.4588930010008010  6.4522296099205034  3.1239474294915381
  6.3553634240174013  9.4771043911209052  6.3334300659278613
  9.4694013776209403  6.3747951689445879  9.5048022127636660
  6.3362196115486311  6.3886087063515999 12.6885179296047994
  4.7991127498583470 14.2052964103893178  7.9861457336402033
 15.8661669116201232  3.2498849378222192 15.7429841218249553
  6.4042346761718969  9.4605149144133698 15.8220013009475746
  3.1262817519197079 12.5421357001796796 15.7894801640237379
  9.4600853982113584  3.2150753266501528  3.1653216157240123
  3.1730554959744492  6.3443004448919202  3.1603789717997364
 15.8558285496287059  9.4756165394684153  3.1302320135484383
  3.1322309495463201  9.5053105566874017  3.1167209629306352
  9.4828551888992507  9.5018459878636712  3.1262396675884654
 15.8526812055033606 12.5517675037028713  3.1167866308206005
  3.1731930051826924 12.5858953708461971  3.1115411802639663
 15.8892371766798224  3.2079236741983839  9.5930326594520920
  9.5362615819341787  3.1919595912346637  9.5782687356753513
  6.4042590727409614  6.3254085269170410  9.5976883199463625
 15.9336892551789138 15.9210789623453302 12.7022979047099422
  3.0798607150329897  3.1923908928720679 12.6750469717611356
  4.7971191154633592 14.2070695574595565  4.8198438814636164
 11.1568557807658202 14.2482911311689584 14.2468484051722264
  3.1494463301121116 15.9124701174987138 15.7983383740134009
  3.1915993276675372  3.2982966755964060 15.8040895750788124
  6.3038969852945810  6.3324299388107903 15.8445821219535770
 15.8825421991685829 12.5655373326568984 15.8294741362964473
  6.3874634926999292 12.5908943819113652 15.8340792077622989
  6.4354835290342427 15.8876054138608875  3.1963040617349434
  9.4770520056595249  3.1751771740285490  6.3554156514730247
 12.7552808671848084  6.3761267701094431  6.2933954851461396
 15.8296218230731967 12.5605167215406777  6.4504854850567588
  3.1113665539904676  9.5825459015243339  9.5247385348278399
  6.3473303849863916  9.4719170307774530  9.5598497837224130
  6.3407127057000325 15.8408698992156101 12.6459777262751434
  1.6001031875387408 14.2595185147200585  4.7805578172589316
 15.8359837423627514  6.4046493336932224 15.8054638380587154
  3.1878562436802809  3.3134732808033833  3.1700308409138107
 15.8838160629328264  3.2381812967110211  6.3681295192403082
  3.1020453705336268  3.2871817229044393  6.3637874851486780
 12.7304012914057605 12.5943767723952966  6.3712655245499699
  6.3313662796078001  3.2377132111041447 12.6377892233965081
  6.3869015522598849  3.2584409001656489  9.5733451890866590
  6.3173692710060800 12.6306376450690756  9.5413881912490428
  9.4982515668837841 12.6597652291636837  9.5538658110763848
  7.9418568173993123  1.5986295443521881  4.7469635337923135
  1.5736797745242510  4.8214019561533386  4.7605355228943331
 14.2988001637789282  4.7876556867132187  4.7612790604961086
 14.3010048942517169  7.9362248642354656  4.7800845724526662
 11.1264703429629694  7.8886524842106711  7.9237674625579180
  1.6100012300291329  1.6383825882351724 14.2737616642244163
 11.0931683319445664  4.7870846336353345 14.2245317635639061
 14.2647305375946640  4.7915079505476843 14.2336048115153631
 12.6411114464405809 15.8853570019444366  9.5307926865454498
  3.1784233403983633 12.5579856746036693  9.5513846706478081
  4.7481798838159337  4.8270004722020072  1.5739884686420940
  7.9210532159373948  7.9204049569279684  1.5615177833716352
 14.2357243837480709 11.0501480349378500  1.5422599930918741
  4.7668537379299538  4.8159214259795116  4.7644629939400094
  1.5841728943381208  1.6243411259726022 11.1150977890741771
  1.5705973658093628  4.7436443168191449 11.1315830232739206
  7.9221747193724950  4.7691739907012538 11.1029640276880759
 14.2830300865388953  4.7614838371896226 11.1203958270406247
  1.5691218570007210 11.1341066626895469 11.0485870440632468
  1.5732806747424397  4.8037971172836968 14.2389172405493767
  4.7425529973592706  4.7852867769334360 14.2367589518632425
  6.3305249021334316 15.7971965082341850  9.5843580741042373
  6.3667084003944199  9.4304658959356615 12.6652058210816456
 11.1030277326730982  7.9394262428098035  1.5701267862189341
  1.6207166846599119 11.0113437539384762  1.5348806158084640
 11.0739289143192234 11.0038823930204241  1.5567539170344142
  7.9073208732476896  7.9318838809605108  4.7340917716667628
  1.5682350119497825  1.6696164715961401  7.9611047076228934
  7.8991765937627347  7.9459441645873463 11.1472899651591195
  1.5866789850185319 11.0344613310314195 14.2707605098302412
  9.5027286200921477 12.6399537432299258  6.3831126428234590
 12.7034469863823141 15.8661143787894918 12.6579591037870109
 11.0882990985877896 14.2097212031602993  1.5636438104151340
  1.5305887197483712  4.7680202518999426  7.9217207655263326
 11.1761450611281230  1.5455568375101485 11.1043321935219250
 11.0883063884670658  7.9281187898824328 14.2586174949709008
  3.1380338136905630  9.5418280922514480 15.8544595175930070
  6.3578023559019234 12.6203765074545764  6.3703056186088070
 12.7315286770720704 12.6010389447080939  9.5265466915267218
  1.6054150631729756  7.9481849172717913  1.5499558395412254
  7.9545492370100011 11.0329820493550752  1.5706003512156357
  7.8653628257775496  7.9084416582200054  7.9389449392683824
  1.5939956498866619 11.0931399097411951  7.9939059125134708
 14.2422627790859266 11.0862942617093374  7.9831847965522460
 14.2529526464552703 11.0915933822355619 11.0949340618590000
  7.9048767317576800  7.9206484633138148 14.2485934551669882
 14.2864981272736422  7.9635531813217355 14.2450627507318597
 12.6620493554727691 15.8340610304072360 15.8656963473555486
  6.3674583468674735 12.6115834757732070  3.1528369067734761
  9.4800171697618474 15.8858382019928364  6.3651491243594656
  3.1604522631248058  9.5518056605709258  6.4241943289862116
 12.7148754185624639  9.5104159816723914  9.4617872137060370
 11.1155861761591090  4.8372366426858298  1.5913868410474485
  1.5346765982882815  7.9160117696658059 11.1269621278757835
 11.1194614788892352  7.9280671487682506 11.1041843939542719
  4.7961999803008135 11.1138813378834023 11.1146254013237815
 11.0750446240285552 11.0514757798716463 14.2722371214697734
  4.7459236212663649 14.2226534646340941 14.2588734144699494
 14.2406760710527518 14.2742400140908057 14.2270831312224999
  9.5907064824003641  3.2608346631325640 15.7990234515487096
 12.7073320002642642  6.3974609696040492  3.2335063001207751
  9.5311171955743514 12.5699013814200278  3.1083815063622962
 12.6954617570900030  9.4597400154369709 12.6942288535711043
  4.7219641555865834  7.9335723144599193  1.5411341343760598
  4.7752575679608347  4.7485189020052010  7.9686182677412942
 14.3496702609871729  7.8939267390673793  7.9498569539340167
  4.7979098408405534 11.1797486001288888  7.9725404158126798
  7.9107387313782498 11.0773755745355320 11.0820612271053687
  4.7694715208668921 10.9768999359218071 14.1917342039008396
  3.0096973321969305  3.1953026607345252  9.5077935196240553
 12.6888659020567331  3.1806884859403453  9.5945827518007771
  9.4867289663871190  9.3866697734780313 12.6851928058790104
  4.7494322296967821  1.6424278896821802  1.5945340376862882
 11.1088841017270425  1.6552236102448104  1.5615529934586314
  4.7308770139585974  7.9359045301234374  4.7770970137109252
 14.3013562601950177  7.9259559268401585 11.0931336011612647
  7.9238411459272040  4.7777919207041588 14.2624748192454831
 12.7091540536779100  3.2383332599977468  6.3064688148258199
  6.3492634732302928  6.3968160285843183  6.3246016278209467
  3.1400950507193879 12.6255321758254144  6.3911311863954499
  9.5747570896279903 15.8777480447804749 12.5898504421738728
  1.5983563260952214  1.6139096985737811  4.7379478537960784
 11.1207227885043434  1.5700684814882426  7.9504062868004119
 14.2874272434741076  4.7681795883065039  7.9515503999046189
 11.0674680735865092 11.0738086745290385 11.0125080180742021
 14.2350897187957166  1.5847110364487773 14.2105762406956586
  6.2371029855005471  3.3053892749450977 15.8372782443904701
 12.6742718895348538 12.5958385568721685 15.9264573835732168
  3.2076328940303402 15.8504065347909400  3.1549733958552162
  3.1342767927765260  6.2273708290032079  6.3017894773375467
  9.4483710013689812  6.4584783121828000  6.3884516714893387
 14.2396336420356882  4.8530412950558377  1.5433984564828263
 11.0534912168914659  4.8166929511201575  4.7690687944600167
  1.5879957477006610 11.0748598312962052  4.7824067922510682
  1.6510425466664049 14.2008939250961905  7.9894795415027602
 11.2288289993927517 14.2421630419559122 11.0097817853924553
  7.9460707393051688 11.0291194198941636 14.2158855480295792
