Mo Nb Ta V  W 
 1.0000000000000000
    15.8515778005355408    0.0000000000000000    0.0000000000000010
     0.0000000000000025   15.8515778005355408    0.0000000000000010
     0.0000000000000000    0.0000000000000000   15.8515778005355408
 Mo  Nb  Ta  V   W  
  50  50  50  50  50
Cartesian
 15.8585665258527673 15.8339661792414148 15.6981485358092101
 15.7237692719332944  6.3624010097274519  6.4391738389500679
 12.7233581490168142  9.4113477777013994  9.3995554878147960
  7.9412356133712141  4.7862700234315527  1.5794879123319854
 11.1701321061166983  4.7641281615243463  1.5674654277959308
  7.8797581794712830  1.4936925005883686  4.8201376430939389
  1.5376184283354490  4.7553249260880275  4.7737756038586800
 11.0272460292853918  4.7646137280918861  7.9723311010143396
  1.5627959599478272  7.9693772212879885  7.8677733451873966
  1.5532904034600756  7.8877727260817272 11.0930713874022793
 11.2106337734066024  4.6432880452334837 14.2190851842743236
 14.2594124033795495 11.0734175043582148 14.2702905930623523
  3.1236880099043116  6.3523750426140975 15.7684707799839714
  7.9739877419469778  1.5365460274954412  1.5110549239199709
  4.7211566952383590  4.7073072786973329  1.5546117972437907
  7.9825528696500481  7.9419934535143808  1.5915583819943149
 14.2472496180949335 11.1492691241951984  1.6149343352031416
  4.8115752668576333  4.6583802603727662  7.9769704663922338
  4.7367348411695360 11.0919006380702978  7.8777095104674073
  4.7416258078533939  4.6711286173837001 11.0667171081679250
  1.5705594585520044 14.3410554394685619 11.0502700780462124
  9.6295128932021754  9.4076026964764932 15.8933564515210826
  9.6105047458910526  9.3798093863184384  3.2351245921625114
 15.8063857237384902 15.8915892848879050  6.4635944811792383
 12.7446929352524574 15.8194967059774712  6.4662730604849950
  6.3920632224687610 15.8526962838366465  9.5178651875343228
  9.5769800899168605  9.4205576094828398 12.7017332972618515
  4.7230319198879345  7.9717798055970315  4.8189038952659944
 14.2446838735368004  1.6331827035498376 11.1522445942245607
  8.0494909106569743  7.9048414235275866 11.0300028760692594
  4.7004208982209219  1.5834385633527068 14.2501607544672027
  7.9503640446675865  4.7082151811963211 14.2249028171784051
  3.1162638408994621  3.0914887205288739 15.7779938387722058
 11.1169619701562130 11.1480996614396233  4.8018688082074616
  8.0071718303022461 14.1931228934154188 11.0490449713822478
  9.4890013684050167 12.7534333245949050 15.9284725431475049
  3.2287242504847815 15.8558980721590110  3.0632329332025430
  3.0851150244027523 15.9239849899644277  6.3856922619632730
 12.7719334850177439 12.7656938159060012  9.4557610050773864
 11.1428733912530902  4.7932859030207453  4.7739432226730285
  1.5360018781212321 11.1118880493786758  4.7729313464976615
  7.9376880986138847 14.3316799130888644  4.8627249494320655
 14.3042772055697327 14.2529856665123429  4.6788235650069154
  8.0870654522666108  7.8924089756070082  8.0302007744013650
  1.5706769116565193 11.0624456937415854  7.9097146598391594
 11.0467661477460091  4.7030385172772160 11.0852844934680057
  4.7130774102538426 14.3082533660835338 11.0233725545300771
 11.1027155497395835 14.1874539369456336 10.9903388075781088
  1.5698266384559625  7.8805528852814319 14.2706480136715470
  7.9825996177257084 14.3166640498707380 14.3474819041964299
  9.4686073086465932 15.8196484873391210  3.1285587939250306
 12.6408040469777596  3.1679853366942745  3.1605321060309426
  6.3852315784575868  3.2089976726609057  6.3144326104259614
 14.2561589297266895  4.7760733313167485  4.7659047512340011
  8.0421782064473017 11.1060053266182219  4.8139142543112072
 11.0630493302363568 14.2225331165997311  4.8292533636234767
 11.1381068787381565 11.0762403319862592 14.2993295981907558
 15.7901101923527118  6.4374444086958977  3.1136895526678963
  9.5216460314987579 12.7378061245640115  3.1939405050905787
  6.5041511888129833  9.5260928333953920  6.3781711895289597
 15.7434592285521529 12.7368331192767030  9.4669692556878591
 12.7162864855009587  9.3926958321292577 12.7041944411619845
  4.7458344540815247  7.8513824700244452  1.6034970076738981
  1.4759738517490018 14.3080274301081563  1.6532498563452267
  4.7681037993959778  4.7345999270984338  4.7398343998585997
  4.7382465532043181 14.3855308010453324  7.9375200022968917
  4.6939346304126195  1.5506650597506837 11.0142564779407266
  4.7548094639835377 11.0965309807351034 14.2406744334531297
  6.2522699896977425  9.4865844497399259 15.7994262015906397
 12.7142768670366539  9.3497348198603802 15.8795106189874602
  3.1782377712528125 12.7785202064528676 15.7651460306689355
  3.1049183147255981  6.3527982629270721  3.1499878787792759
 15.7739788416617799  9.4464254265637209  3.1278542977240926
  3.1231739953450242  9.5241072897514307  3.1543986070930341
 15.7575237753483748  9.4110672217003319 12.6597562993245099
 15.8167949236309600 12.8321382184181569 12.6902023332668872
  6.3229802080251991 12.7207252520659075 12.7065969391742684
 11.1482255443314884  1.5440256049185215  1.4443630196014352
  1.5016985797465092 11.1794165813653716  1.6163620287927565
 11.1446428789379901 11.1330580627068922  1.6582333986563706
 14.3200686538544932 14.2905451091566480  1.6459159892377739
  7.9487401348661599  1.7128766106095565 11.0783451071916836
  6.3219763499501189  6.3337722925921289 15.7969235374456431
  6.3630612015872368 12.8645878569365735 15.9281236409655342
  6.4690160938554637  6.3086761211978963  3.2858762660723588
 12.7203545808918914  9.4245904446146920  6.3484826097719305
  3.1313982225071419 12.6951201418955115  6.3548185738044038
 12.7721303555370458 15.7751469768110564 12.6522754298908531
 12.7541109012053759  6.3640965865842487 12.7405388832652093
  3.2271183587282910  9.4111152741150903 12.6507859077501745
  1.5805203464158422  4.7783162071787784  1.5282627820075463
  4.7536261550022347 11.1086981211944096  1.5858426247675108
 11.0323743143074218 11.0759716811213540 10.9507424428600864
 14.1261588814965844  1.6705917907217873 14.2823607729275661
  6.3253877699981436  3.1288889965180831 12.6343050524248728
 12.7473049475605702 12.7742822917680439 12.6742514181885735
  4.7183365072055947 11.0545968853888148  4.8311809906111636
 14.2319252076434530 11.0931942625419229 11.0795241937596796
 11.1650335442347046  1.6027388752338401 14.2857428462923792
  7.9300425251811122  7.8898968520783681 14.3096746614232693
  6.3948778013194199 12.7534162996246963  3.1715584463668667
  6.3970555083002418 12.6991686442652014  9.4355241662851661
  1.5283072907274751  1.5782154630900715  1.5467921333843053
  1.5400542903866128  7.9649165774140762  4.8436164718057935
  8.0012787020377143  4.6866858786046146  8.0550505944749240
 11.0411895538336839  7.9468252075168104 10.9788680841960069
  9.5365810793370986  3.2031998237589825 15.8325301578179278
  9.6367044398692911  6.3348791396810684 15.8611572478779390
  9.5670922136155951  6.3900706036961044  3.1933557565302073
 12.6689452204169886  9.4318592917337281  3.1954590858103087
 15.8038452847028736 15.9016378034070947  9.5161743152056317
 12.7392082657188972 15.8287519744476324  9.5177794358770402
  3.1622545115025549  6.3271602680573382  9.5525162627463551
 15.8356011857119121  6.2674647415855178 12.7056366333445077
  4.7609057822035492  1.5024352129027581  4.7714382440403602
  8.0897336775780886 11.0752244395193777 11.0488412940889358
  9.4797603970933420  3.2018295314024070  3.2170692337212174
 15.8733090456796546  3.1449761335799931  9.5442120169936739
 12.6992914397294978  3.2030885598485677  9.4845406744091747
  6.2784626851373062  6.3728598465404200  9.5649305872197843
 15.8705391503318154 15.8749522792062212 12.7010393875281302
  3.0178560674941530  3.1779641911893362 12.6675376020197543
  6.3045721819059590  9.3792378579750082 12.6016472227502554
 11.0405827483425956 11.0998962603359317  7.9483628698939626
  3.2081322605092182 15.8380442690599335 15.8065802306653111
  6.3404955710368816 15.8006059998381527  3.0399927473817918
  6.4302653538068313  6.3845213708384838  6.3443771656804957
 12.6949641264237503  6.3999119705253094  6.3998848719167860
 15.7781448946675660 12.6703427995993589  6.3951605645933647
 15.7974636199128859  6.3583897910190164  9.5289313049985580
  3.1538561000209748  9.5106265046187897  9.5093306211197710
  6.3741718646746017  9.4902175223429186  9.4787349149031801
  6.3214967925286709 15.7662272446604028 12.7014593670526050
  9.5388355889206995 15.8487223415437235 12.6744417632817505
  3.1760870034968538  6.3057558059670544 12.6668246337023138
  1.4935889781364176 14.3441957030093672  4.6830179469791622
  4.7743345702959914  1.5539385754573034  7.9991410319668121
 11.0057591011478699  1.5821776366943647  7.8613045337436009
 11.0094793669261914 14.2424624566527438  7.8669144562423297
 15.7734858823247848  6.3587250670993329 15.7915529330275088
  6.3915617351784286  3.1242715430560861  3.0997043584466240
 15.8089631701440432  3.1556691845143590  6.4474230264532251
  3.0698890686804443  3.1477327904402252  6.3970379784203235
  3.1803710311085944  6.3129756292085366  6.4041517719087517
  9.5679856033706052  6.3901792755177764  6.3212256764846577
 12.7119756202665410  6.3416233810400291  9.4658657986296380
  3.1010841900767305 15.8297291970389615 12.7006158026180476
  9.5563767476262012  6.2577039205983844 12.6965386636031514
 14.2875019697011094  1.5029297651161793  4.7623614933220146
  8.0274606019666681 11.0890987187344301 14.2919478210548032
 12.7303248154411310 15.8771413725698363 15.8150418792405745
 15.8255939831634933 15.8521357054935361  3.1251116950299762
  9.5020974341818132 15.8491484221034007  6.3074943434617028
  3.1439688807025927  9.5189649411436719  6.3967895895750697
  3.0797991458631713 15.9187451939620299  9.5227321287095705
  6.3976275465682955  3.1842671001821858  9.5344524598513960
  9.4416966928606652 12.6472354511558009  9.4025529261248124
  9.4790025967617222  3.1726268264904123 12.6870154126136914
 14.2583834453180796  7.9224483980835094  4.7642542133686723
 14.2335356961667561  1.5754593425223120  7.9199181890741777
 11.0912128159325931  7.9450473020049985  7.9652289877175937
 14.2520652249966311 14.2664862703580813  7.9507667863980043
 14.2903418868079015 14.2859172328283588 11.0968366855283520
  1.5551211969723338  1.5787528234308756 14.2816285758653549
 14.2349899562358679  4.6998963417709190 14.2635378312802814
  4.7311053419928850 14.2621202021295232 14.2626152006894475
 14.2636453870524118 14.3245299348717214 14.2795927977256536
  9.5577598244514483  6.2893223741359581  9.5346560730915453
 14.2724413899496181  7.9080235014670519  1.5727568217729644
 11.1527912839940200  7.9052051603038249  4.7958513862077350
 14.2406781566652008  7.9266241262990143  7.9287201921958550
  1.5723138547816917  1.5475031981351282 11.0893965050818721
  1.5464233709861099  4.7670574060882842 11.1090071552027823
  4.7092434669653382  7.9144788036366673 11.0788676178046153
  1.5939674778749020  4.7677800670118815 14.2701211016748069
 15.7815440600761026 12.6825888083257770  3.2198642206906105
  9.5647075270173953  3.1601817868860547  9.5476069791047333
 12.6490068937140201  3.2206609152267518 12.6743935846747142
  4.6934766984671263  1.5771428575188335  1.5794747317234907
 11.1364750858754515  7.9317820148504268  1.5946100780476267
  7.9600972580606850 14.3211688316061512  1.5640642400133176
  8.0167526675984817  7.9443956462760035  4.7695285145538744
  1.5612485491831314  1.5795613033342277  7.9849822483811721
 14.2408338360737776  7.9134177326284467 11.1001578068125415
  4.7293878892242720  7.9028937316436441 14.2647111968682587
 12.6781256841640317  3.1995997765233950 15.8167836286754735
 12.6617911497906910 12.7125939536609813  3.1691568338110971
  9.4814220299238539 12.6796216065006675  6.3623954626937484
  4.7379178577461722 14.2465057779811755  1.5449580387520152
  7.9773130103489898  4.7842161567955594  4.7755624424252510
 14.2697897480142810  4.7953893775910075  7.9442570708508926
 11.1401986822280019  7.9107089154018366 14.2485345176877196
  1.5947725490123132 14.2977714520699983 14.2606675457449121
  9.5009856809774753 15.8879022095443272 15.8576366409276286
  6.3665809516709437 15.8587922804522581  6.3740282453481756
  9.5269513386899174  9.5171002289877435  9.4248162763050569
  1.5243099081426303  7.9114704781142784  1.5886429667238222
  8.0659882902258691 11.0890355860875189  7.9347397604718584
 14.2256040463207380 11.0994571177494112  7.9394340250751778
 14.2668685834296873  7.8984502518898356 14.2606860650914467
 15.8225030909807582  3.1674357541298215  3.1453566628905301
  9.5690885658034865  9.4050869435713800  6.3538851037525932
  9.5463196603365272 15.8838015044264900  9.5472965480758099
 15.7702185361885672  9.4823162540119963  9.4750916459553594
 14.2411047422346151  1.5921252369181114  1.5026002916334837
  8.0383834366073437 14.3134544581310656  7.8789806345493894
  4.7821549888161137 11.1101960759652698 11.0973910480713762
  7.9557039103053890  1.5683069158157068 14.2690698394287452
  6.2348915267992009 15.8142679754512603 15.9014523864427826
 12.6954792108667291  6.4787817149290658  3.1656804796000784
  6.3829425117966334  9.4910347504385530  3.2332185520239696
  3.1525810028591934 12.6798610172552024  9.4892409531302810
  6.2891181162830856  6.3547458784532207 12.6622605226745755
 11.1097121931168878  1.5270232950810423  4.8241134571104274
 14.2293577014605557 11.1414630461400161  4.6932545778287080
  4.7430083230533695  7.9709647114855100  7.9091992857037035
  7.9725454701797220  4.6971519928657468 11.0265536376417508
 14.2497530079027719  4.7161688628058531 11.1332342076949615
  1.5199157382939898 11.1035836710619975 11.0937453706613862
  4.7257040460304029  4.7101199715139508 14.2708185126052403
 15.8484626152092432  3.2355452901744348 15.7127524096264324
  3.1910759848802259 12.7349259566407049  3.1917093445905738
  2.9972372191893153  3.1143854221572513  9.5407410670103356
 15.9603626773292184  3.2209517414878968 12.7117457964473566
  4.7558101992046069 14.3414569963513951  4.7996290901836218
  1.5685992740449277 11.0836107556523071 14.2513695864380097
 11.1236234262174243 14.3745218651003519 14.3586914120932576
 12.7351272024268987  6.4190995875873353 15.7876079679448864
 15.8354678183566975 12.7602093586873835 15.7541751264903791
  9.4548780969743582  3.2059346324481486  6.2780591881091770
 12.7431833102483942  3.1835995617884683  6.4255989771024513
 15.6773157337080828  9.5425850784994051  6.3629125677094249
  3.1445439450690329 12.7449381996498250 12.7029431185747068
  9.5896271721251427 12.7216449109037608 12.7028366973865907
 11.1746850268170199 14.3171683006145489  1.5509679294362817
  1.5017231457022453  1.5355004188962558  4.7127923081361436
  7.9695014453721251  1.6263240774517858  7.9298876793814870
  1.5297657985606559  4.7640481886596264  7.9747635453840697
 11.0920672284827670  1.6521465043748349 11.1121813351593026
  6.3235900636887488  3.1315060086692452 15.8878607279600974
 15.8180838878545593  9.4410416814696489 15.9100695422332770
  3.1283471510568113  9.4734239713056336 15.8824371695176687
 12.7551371405712288 12.7304505147291049 15.8308837180166719
 12.6706464385255195 15.8389933071722186  3.1627654951622381
  3.1827196547517689  3.1314386131523233  3.1447677698665011
  6.3839857624447935 12.6835512471216827  6.4073503940315497
 12.7628745783206448 12.6680139422644320  6.3867688896024841
 14.2395392845784539  4.7317941846847758  1.5293665732458330
  7.9590653565498650 11.0622049145072907  1.5904453159175009
  1.5764749171174108 14.3376839614843874  7.9505922271572613
