Mo Nb Ta V  W 
 1.0000000000000000
    15.8515778005355408    0.0000000000000000    0.0000000000000010
     0.0000000000000025   15.8515778005355408    0.0000000000000010
     0.0000000000000000    0.0000000000000000   15.8515778005355408
 Mo  Nb  Ta  V   W  
  50  50  50  50  50
Cartesian
  6.3132874141428132  3.2340945090854598  9.6484015510403101
  6.3221245120511611 12.7132166889226106  9.5180640502113487
  1.6112883937417370  1.6388691835158500  1.5544711188107627
  7.9048766439582305  1.5791346803010295  4.7508497918526480
  1.6026960578728582  7.9338325965319454  4.8265858748196919
 11.0467900196489435 14.2364550757000128  4.8489525912856370
 14.2927153446223976  1.6222057606367823  7.9344284485660515
 11.0490339789271310  4.7630091801269412  8.0164152706316649
  1.5958172498490668  7.9158862815204953  7.9161438592548548
 14.1911749422288143 14.2332516025319098  8.0084510772131807
 11.1029101935381593  4.7095767423929731 14.2284955657600030
  4.7919455684688570 14.3797349879951302 14.3075176807616735
 12.6897884855018805  6.4339225721447653  3.1950477258809822
 15.7518962065662294  6.2943614549604501 12.7750459945620580
 12.7382415059322138  9.4113180719101948 12.6483178203810720
  7.9148833532401222  1.5936898958885424  1.4351777993543711
  4.7244082858922622  4.7241231733333899  1.5430758080761668
  4.7324145218758211  7.8897073944580534  1.5471792920411007
  1.6211710566795556 14.3383511429963022  1.5716428923818293
  4.7234715400909568  7.9154434470189177  7.9178495529332880
  1.5454536680540230  4.7230982684270764 11.1622437047803551
  1.6370677392057744 14.3253247907634069 11.0827703643105568
 15.9013408774340466  3.2212887077781307 15.7640598021424658
  6.3868401489028068  9.4307248779210209 15.8022002414256288
 15.9265865865878684  3.2117390141650048 12.7458284509487001
  7.8697991490795367 14.3862617638908219  1.5152621662717616
  7.9486015409946615  7.8809313052468832  4.7664031731630025
  7.9291555896925745  4.6943392516199403 14.2873767472308781
  1.5808170139393765 11.0862730057182155 14.2461231377248598
  6.2680555412146362 12.7870349287451095 15.9168326842972192
  1.5584729808615099  4.7504603773578582  1.5735695053385776
  4.7645474556168610 11.0811660560661984  1.5490464389465470
 11.1142284647762448 14.3726342269820169  1.4505853415061354
  1.5922708011865090  1.5934814963909616  4.7384236355511318
  7.9158799098247918  4.7414152681898392  4.7151542816316248
  1.6045357563767830  4.7494975917147570  7.9497634111202835
  7.9394137894861823 14.3436313452927884 10.9673405662368815
  1.6067114124123261 14.3169172952652950 14.2380516056690123
 12.7006256174005046 12.7379213009408989 15.7713923636515840
  3.2108762031543598 15.9357586984760555  6.3442777398507149
 12.7380531672455533 12.7182909754549307  6.3297268397782123
 12.8148983538270311 12.7908973834963060 12.5954918922701697
 11.1099548976559515  4.7609850084800289  4.7547888047199720
  7.9271260054368327  7.8664680555387152  7.9476603438174589
  8.0109716091087595 11.1741215775842448  7.9340246534636121
 14.1995543957319850 11.1087874032954641  7.9923363671866943
  1.6728147303773404 14.3300589568460079  7.9842288591746833
 11.1066156610544589  4.7363966014623076 11.1039639080766435
  4.7387935812975002 14.3934280947809654 11.0184896233876941
 11.1549903880439452  1.5679670529005996 14.2862911910960673
 12.7123058865575480  3.2080391250607350  3.2107337849399769
  6.2893407088683357  3.1571103478890117  6.2521299098468326
 15.7006423542978606  6.3353111560666688  6.3743423276897468
  9.4862235328317297  3.2038881082283397 12.6375005260668338
 14.2807966787311642 11.0575840173256772 14.2072277503298317
 15.7284177551798532  6.3643163980143731  3.2031735995578603
 12.6699377797971682  9.2743667902507720  3.1744834960229635
  9.4603962314423029 12.7731326510046124  3.2076686326193053
  3.2470738810103863  6.3002912651634446  9.6311727863841821
 14.2535007419872386 11.0613722197004627  1.5494105244600751
 11.1036247374391905  1.6188062630923936  4.7481518861599730
  4.7008796040156717 11.0566517829919615  7.8989709435649580
  4.7585509214750905 11.0740250865978016 14.2327730405060748
  9.5884808769977887  9.3658903858871909 15.7730967563164306
  3.2612261377134395  6.3441740201421268  3.2405476035070722
  3.2078766753752932  9.4561029633539686  3.2404398805071204
 12.6959068369715506 15.8266846385339743  6.3225142968797501
  3.1764402217548438  3.0508218084937462  9.6512716295214531
 15.8750242199586467 15.8425843996697111 12.6784042752623680
 15.7507936406066804  9.4449212490741878 12.6526126116681699
  6.3652187954824289  9.3308914776733243 12.5960902110554347
  9.5025236522633314  9.3683243347926215 12.7343306593854688
  6.3034237137070832 12.7706708672855918 12.6808514698240788
 11.0643951753297820  1.5909176157253277  1.4058072038617895
  1.5658058400078192 11.0716843149168405  1.5525364732664717
 11.1350125760125387 11.0702871318272056  1.5716648319883382
 14.2373989418108966 14.3267880907375798  1.4800158203104670
  1.6388607573563188  1.5938515075108781  8.0156716909707910
  7.9364663269181577  1.6432659446011408 11.0039832525882311
 15.8263034669212654 12.7526321340605548 15.7676861581890471
 12.6878634464514555 12.7296693011870428  3.1679811483362244
  6.2616678028898791  6.3226517425740036  6.2569196167274503
 15.8556191441066012  9.4806249868450401  6.4348428311512764
 12.6996914883708616  9.3435471647145487  6.3164322638251749
  3.1216510548188676 12.5788785720479304  6.4307698427790330
  3.1229429755315929  9.4694832762469527  9.4716583450674907
  3.1434300825314367  9.3825573420113049 12.6777700797413626
  9.5147787720536279 12.7594771050818654 12.6757527277907762
  1.6478201905963834 14.3109688024218329  4.7679950813422396
  4.7951746764205465  1.4922180166974708  8.0819625873496168
  7.9257379895256097  1.5303346533023126  8.0943413940025906
 11.1104165177260779  1.6422408541420415 11.1392398034942328
 11.1632562080459401 11.1882283856874789 11.0155909868098476
  9.4834701498141847  9.4956998470834542  9.5362625617493393
  7.9267451049622872 11.0871741663860846  1.5718226814353087
 14.2488162580319848  1.6293465383459429  4.7636700057794528
  1.6297789030649186 11.0312630080862331  4.8159286484079029
  4.7142409840995132 11.0661445428224976  4.7989610196900534
  7.9063828563832468 11.0924916750798417 14.2374336665054759
  7.8932869117715176 14.4471122146349771 14.3320888597483336
 15.8888920778220513 15.9137972010065560 15.7785084853937452
 15.8375567707536042 15.8867154896530156  3.1529766073769245
  9.4659501731042717 15.8277726190638646  3.1588929236828069
  6.3554169903705811 12.7740582799697222  3.1514451376015131
  9.5439643259227900  9.4445284879716880  6.3364675630546410
 15.7784311668121617  9.4850905760350042  9.5259901845539332
  7.9743465888300618 14.2461861639543130  8.0004500604041553
  3.0925316037145110  6.2792367279344310 15.7692021688285813
  9.5298568266037673  6.3216478993669263 15.8142362190536261
  9.5600290789970668  6.3298669345066712  3.1197527845832100
  6.3266602834804537  9.4552557127907075  3.1790605738583282
  6.3523970696308982  9.4633618023477055  6.3430127227574813
 15.8598189872269835 15.8719879101377455  9.6047519837400763
 12.7306208348512051 15.8584876963229657  9.5719230954332648
 15.8178942385783063 12.6762466416844539  9.5597967070480649
  6.3282800283271117  6.2656687837138243 12.6589037060416008
  4.7631203506951554 14.3351217838055121  8.0189386069208641
  7.9179155387674074 11.1595811143762571 11.0340424654386808
 12.6811275921787612  9.3316359776212074 15.7821937428000414
  3.2048490266323437 12.7459442473096303 15.8518735221454072
  9.4406583568687097  3.2135399019710151  3.0497362367927554
  9.5655008972904998  9.4333318470597867  3.1899132488939173
 15.8558298169724612 12.7153127120183207  3.2141913397892194
 15.8458711336279219 15.8226470416751983  6.3849103023944700
 15.8142640810386279  3.2365936953212815  9.5837798819410214
 12.7263922528970266  3.2538278301748194  9.5476339066025862
  6.3596744739496822  6.3381205639659663  9.6100838659158541
 15.7903311805424327 12.7655264512520983 12.6263255398512619
 11.1338273058922912 11.1717666444445243  7.9720182176313230
 11.2029296983392133 14.4492037907471200 14.2499659293735874
  3.2251144999007932 15.9427173911245763 15.8435532664934922
  3.1410906195497263  3.1507781032807558 15.7697716266348706
  6.3635552013146341  6.2676962345208098 15.8118992948563637
  6.2947640303062187 15.8934387085627922  3.1191212817161391
  6.3508693379504573  6.2816018367068462  3.1362529281824458
  9.5027272165123851  3.2013890347764007  6.3926084810215631
 12.6990495843577182  6.3155684825377394  6.3440834928991832
 15.8203715565220442 12.6960788582941237  6.4151262419018478
  3.1543361186276844  6.2469722829362819 12.7221397396464759
 12.7516421527909394  6.3100784578653712 12.7168103645792137
 11.0578164059857045 14.1840107213492512  7.9888546256904691
 14.1817467642177881  1.6353260706047301 14.1729676646052845
 15.8031519655836998  6.3211980982892921 15.7511618485961762
  9.5197838515388202 12.7360255513753700 15.8304216533157724
  6.2899625073749759  3.1491527423851600  3.1104062156930978
 15.8271164177719932  3.2568895877943937  6.3619401454751774
  3.2239347936428064  3.1723964851574529  6.2669861068143620
 12.8262054935326919  6.3033441188818902  9.5375646826531408
  3.1852054094493814 15.9844904442366591 12.6608267222729012
  9.4583406066831675  6.3404638063802308 12.6491386087208877
 12.7394818975743913 15.9178385785874017 15.7650208162857428
  3.1882944566398397  9.4469038031946120  6.3646288595541645
  3.1644268176572239 15.9451560631330356  9.6514697297477170
  9.5443655055192114 15.8567148033863674  9.5618058519557589
  9.5481558286147497 12.6650532821996471  9.5113451665327560
  7.9240146231124227  4.7179428484557429  1.5209223011634421
 14.2628472150902876  4.7773571430213124  4.7612847636569580
 14.2577657716054791  7.8604520248909102  4.8067279940236887
 14.2592111543778088 14.2928108125882769 11.0758270412781847
  1.5834998361359032  1.6174822321310560 14.2453125143451746
 14.2738880718607248  4.6957327417163013 14.2205837192340496
 14.1911530721044308 14.3771690554202554 14.2281000138223188
  6.2461565596472131 15.9661042021112056 15.8923450812731026
  9.4971951533259542  3.2373259781402353 15.8638413888359970
 14.2518766297381951  7.8500617949354812  1.5591062277009273
  4.7973519850855730  1.5945342357554284  4.7464242533673850
  4.7739075883247084  4.7150819931775967  4.7179253710806810
 11.1106876012196683  7.8630409261148690  4.7707022477548557
 14.2554799946394812  7.8948735966158914  7.9244200850337663
  1.5997122969722737  1.6205607763310756 11.1214968526463114
  4.7812440359821196  1.5772017996006240 11.0843186942910066
  4.7337364367988171  4.7421800864116603 11.1547592164813754
  7.9045207417602672  4.6873969789352987 11.1275779636812011
 14.2918545396689343  4.7465279903970261 11.1956742893554519
  4.7276216481410556  7.8370189597264703 11.1196319535832746
  1.5568948170792027  4.7427216864829953 14.2583771657523002
  4.7280758366585625  4.7081521065877956 14.2484855747385275
  6.3620046741440763 15.8516865648685794  9.5544974305819288
  9.5170254535463492  3.2109470487742588  9.5342272528942793
 12.6722485514098153  3.2841277041860435 12.6898276475230674
  4.7453290589949635  1.5936682584359176  1.5378231644811236
 11.1468343137432733  7.8685252986853511  1.5458160345535155
  4.7619223574356147  7.9198457445702646  4.7577691779326843
  7.9133830704490418  7.9068988777383646 11.1120558600519992
 14.2827436042207250  7.8700055611935422 11.1314692921262814
  4.7536376972718006  1.6130137263366022 14.2829184741499962
  9.4876257344180122 12.6801633917703516  6.3626715888294392
 12.7431264437349654 15.8421712771896352 12.6130155437900697
  4.7834881322092953 14.3839337729952685  1.5370665657007314
 14.2666368015305185  4.7793710615701004  7.9415378104497467
 11.1153879226932482  7.8437683764590229 14.2261137899804613
  9.5140689849762943 15.9037208145357454 15.8372165603209734
 12.7451166917731378 12.7157719995998786  9.5949979574589772
  7.9357028326294436 14.2813974618158159  4.7906821190500422
 14.2766398399429963 14.2950865811520185  4.7573565024127413
  1.5652075069242166 11.0475179067059202  7.9562783471697802
 14.2168108259612502 11.1130023298655285 11.1053615825520868
  1.5265973409780287  7.8552410702377875 14.2153053701553844
  7.9304390211735996  7.8629828004598714 14.2193966032835153
 14.2630638751344332  7.8974500453239198 14.2306455405122350
 15.8243633893168827  3.2196457043640971  3.1750147628250973
  9.4984014748559247 15.8293595611791797  6.3722740826798843
 12.7872750225610474  9.4529626378971034  9.5307082797120533
 14.2442614493439219  1.6063897577529829  1.5175426711034106
 11.1372727808662759  4.7354191568678372  1.5098507833990185
  1.5866666906693336  4.7766193607427825  4.7398316981419404
  7.9446977409461406 11.1230623363430308  4.7681382341192524
  7.9103531531858531  4.7266377877818018  7.9692835134089641
 11.1184150790169394  7.8729685474900952  8.0006794179822656
  1.5095041556507378  7.8336264147051899 11.1143577489186534
 11.1553623158287571  7.8917663092193866 11.0890404642669615
  4.7582645496361602 11.0785486183079964 11.0905164064283515
  7.8949699121405796  1.5970689253082679 14.3185521415374080
 11.1449191082191224 11.0933732146299295 14.2114959433293073
  9.4115163370393802  6.3287893751950586  9.6334586557238602
  3.1054798733436351 12.6316570537095370  9.4943024859723693
  7.9268893377432459  7.9019542853173084  1.5405590503013211
 14.2561659187928864 11.0501517973463113  4.7513856528931546
  4.7757447742899073  4.7105109039195314  7.9730814927783280
  1.5502642439337089 11.0754830262492572 11.1215401062807100
 15.7833574743187377  9.4443871447915324  3.1873575800592446
  3.2213805744050426 12.7239016985118685  3.1051739450276696
  3.1698303889972150  3.1313659881225280 12.7466323063080633
  4.7575402537684210 14.2871689395947996  4.7611731752745223
 14.2041285310464644  1.6516586127013422 11.2530304197528430
  4.7535476829475618  7.8645931382573746 14.2690774891957091
 12.7245272757683772  3.2328896265427800 15.7727979045727409
 12.7262967393818052  6.3771054198172390 15.7390943864273716
 12.6936472053230975  3.2729739475835240  6.4026670931246885
 15.7334323407722643  6.3119444650474916  9.5033515745986676
  6.3502485741638575  9.4368475133096510  9.5557028135151167
  6.2596241219919522 15.9629178843611133 12.6517849727201934
  9.5008845034376090 15.9125620344293122 12.6731716267889105
  3.1991539421987323 12.7157466939349764 12.6705608377413501
 11.1035359918388874 11.1147797443236982  4.8117698586132329
 11.0376910587389592  1.5752747580372490  8.0225192660701232
  6.2193125136039091  3.1736080646698501 15.8547873654023839
 15.8045627347175479  9.3594152461517250 15.7935022997873045
  3.1088199818739453  9.4404321741589268 15.7944168417869513
  3.3315776668628132 15.9426963264213946  3.0987017593176138
 12.6787335230029488 15.8374736564758454  3.1645756905451279
  3.2678432525015668  3.1457783204306407  3.1954231200182153
  6.3891738596379382 15.8362161507846917  6.3187780486037539
  3.2386031268965070  6.2802882394676445  6.2970284978500111
  9.5714550957265807  6.3181225886607395  6.3423112016222873
  6.3836282310934189 12.7281658993974194  6.3278301510053954
  6.2133662333723629  3.1932521968374106 12.6968639107377328
 14.2505861323201675  4.7869864240447368  1.5497568299609159
  1.5547648855237777  7.8877359978428272  1.5731422800801742
 11.1081132510191001 14.2813105612786710 11.0540477636379606
