Mo Nb Ta V  W 
 1.0000000000000000
    15.8515778005355408    0.0000000000000000    0.0000000000000010
     0.0000000000000025   15.8515778005355408    0.0000000000000010
     0.0000000000000000    0.0000000000000000   15.8515778005355408
 Mo  Nb  Ta  V   W  
  50  50  50  50  50
Cartesian
  9.5546342055630937 15.8656059720209921  6.2420932816856549
  3.0866683971835798 15.8838732399525480  9.5331104905087916
 12.7779169803549824  9.5347125670095298  9.4504233057388429
  1.5436628518137518  1.6207975115987219  1.5760902394449241
  1.5531770507807798  7.9208276440216689  4.7762240667485196
 14.2388573120488733  1.6269650942163911  7.9573410207520903
  7.8914865616912993  4.6936962427956699  7.9401499840342549
 11.1164562373912510  4.7875357725070096  7.8800643833845525
  1.5298966812390216  1.6278285839550717 14.2484167058618656
 11.1065489001179500  4.7659513231353348 14.3315186632212583
  4.7610088806371049 14.2493106308780337 14.2935017072383967
 14.1736026813097293 14.3466271788721205 14.2203667352180201
 12.7081104176624802  6.2394077310171401  3.2301918855576193
 15.7756492239611692 12.4923300772079866  9.5832166711998745
  1.5596885551798683 14.2628497188184813  1.5606873180761813
 11.1854773239404235  1.5432818479991885  4.7200619818579463
  4.7636900424593289 11.0242271740044160  7.8941790441196398
  4.7419413655431821  4.7335292078712916 11.0724209841963006
  4.7469440230000330  4.7449571761519298 14.3047754252550181
  6.4824788689918620  9.4603446658489734 15.9162895124671131
 15.8557275142010550 15.8695060084050734  6.3674258742652450
 12.6259890029636193 15.8088629872531072  6.3256579393377104
  6.3703449071204661 15.8852277156321602  9.5077508244066102
 15.8149969941162691  3.1898870463062829 12.6211857281649742
  6.4181861219983896  9.4322892872373050 12.7208483427015544
 11.0887322597570019  7.8852944153663875  1.6113537517971794
  7.8896289128772015 14.3055544949761906  1.6265789696541915
 14.1573872573032702 14.3437245631468873  1.5845321010658080
  7.8989849467813000  1.6522195863834037 11.0362238597078814
 14.2554066282173615  1.5975920173732854 11.1290727052043081
  7.9405125736190660  7.9133414069808294 11.0987574042963661
  4.7963616034765097  1.5526057719974180 14.2894952725715836
  7.9536444877683516  4.7685684616509159 14.2915636893041800
  4.7176296516665293  7.9621123261633970 14.2697055779087485
  6.2312401885303377  6.3860120888256446  6.2712620936780343
 15.8018490282940451  9.4209177681798302  6.4684011692091747
  3.1889805688864992 12.6473687950808422  6.3278825688849043
  1.5524204981921426  4.7716802485295622  1.5843922547289508
  4.7782511974665445 11.0777865297802638  1.5663161459430708
 11.0318707256179884 11.1138414540862769  4.7807743336826167
 11.1069197139101750  1.6204691036683607  7.9082675611835649
 11.1671768602063715 11.0726611040093648 11.0556560215821875
  7.8992110477297661 14.2550317805231881 11.0507199151606539
  1.5210141919247018 14.2396623637683906 14.2388467470596005
 15.8745085537527189  9.5119526747184384 15.8383100904672887
  3.1716826416209511 15.8684610961332933  3.1202795128500380
  3.0965085370407093 15.8932416249790798 12.6553192825810079
  7.9154952894208597  7.8920382571333825  7.8544027765299882
  1.5515857631755030 11.0140744099043317  7.8913120390328482
 11.1443777610628452  4.7911723729086955 11.1303123029401672
  6.3614462069418494  3.2063876070854271  6.2102593751683495
  9.5971721182046572 15.8269216818938006  9.5715341000403580
  9.5435554380772487 12.6253690833298453  9.4859892135706563
  9.4839203017386016  3.1331336667078205 12.7631805984766089
  9.4955697923231988  6.4996528558409192 15.8517588935198201
 15.8256219340136610  6.3091056141159632  3.1278107707394245
  6.4349106579945481  9.4400106577083100  3.1857042288908386
 12.6403876827526140  9.6114754323937408  3.0943308134391354
  9.6565371078794584 12.7097952434518433  3.0794406044379286
 12.6248488267420615 15.8285420441910212  9.5452097686464459
  3.0901555428841720 12.5710059348733960  9.5516505839425605
 15.7866830834174241  6.3019727106067362 12.7330684649777091
  4.8671707797180233  4.7284723048873492  1.6435737426622796
  4.8082789749363970  1.7077270880166766  4.7211708272873976
  4.7401916486902795  1.5951249456298284 11.0191182478434744
  7.9088770013654077  4.7494432813193672 11.0709543652205280
  9.4826081421744526  9.4846549675374430 15.9103743590054822
 12.7227722445275067  9.5127797400047296 15.7947048061426241
  3.1148607700195061 12.5965836334928110  3.0937167713757758
 12.8340387343481979  3.2356194634500093 12.7386245218233878
 15.8125370748568841  9.5934038285477978 12.7562638035747860
 15.7990059572690189 12.5410322666467184 12.7049775270947976
  6.3516839025832601 12.7024484751142648 12.7243640493098855
 11.1092282590634319 11.1212595445188995  7.9302958263704886
  3.1624397469740475 15.8363642181545821 15.7937223069258081
 12.8105344428984349  3.2307557431638600 15.8370966617438036
  6.4413439673900825  6.4085578274975923 15.8431495886669573
  6.4756180729306569 15.9715450152815581  3.1837527187596768
  6.3753659051555429  6.4208197438716157  3.2616231761913399
 12.6828074792083871  9.4292390721493700  6.4772400161577597
  9.5407224336179990 15.8630135981641427 12.6666858608489026
 12.7524308665979280  6.3610258761693883 12.7630359641834605
  9.5953734144954730 12.7516521482208187 12.6156262125652052
  1.6234798307273726  1.6672751379800244  4.8181178610089521
  7.9341448513160007  4.8045892492725075  4.6772466831653015
  4.7377172071663392  1.6842944059537444  7.9436916266058732
  9.5013728355026092 15.9504750526592112 15.9365147843991348
  3.2605582028237601  3.2268468333006011  3.2053865767561058
  3.2025369056479946 15.9077161366545941  6.3286622801961068
 15.7690139415946096  3.2888988646983708  6.4148353969630554
  3.1726981521882758  6.4050251765652630  6.4129254369010038
  9.5228274237205408  6.3244340301613722  6.2412745750009195
 12.6450950382488934 12.6465750780631687  6.3067984702097135
  9.5406261378488910  9.4933616992392782  9.4018843022347269
 14.2193875604901425  1.5768104090071335  4.7747168679911258
  4.7984851303123861 11.0998947628634586  4.6809411492601649
 14.2221052066296068 14.2873353549613178  4.7571698966400566
  1.5617267452123520 14.2230882192592301  7.9399346662001058
 11.2058444300607487  1.5377430665058860 14.3115288444939068
  7.9819452174597458 11.0580902735496505 14.2851763661716031
 15.7687517828772279 15.8942739253902712 15.8121442774460768
 15.8503952617520323 15.8813967636520399  3.1309057958738387
  9.5667055081124630 15.8805013114391098  3.1612808795244756
 12.7027794025059428  3.3289856843272054  3.2256125621766563
 15.8443270401965961  6.3550162959149921  6.4291210642750789
 15.7888391111206747  9.5303439334316256  9.4352695174504611
  7.9625281652943585 14.2326657251452797  7.8720002581044195
 14.2693304420499398 14.2240327710472680  7.9772092022073142
 14.2509050563245161 14.2535134653463977 11.0715423163012900
  3.1039945211785387  6.3747546835450342 15.8422475962601350
  6.3538116421797612  9.4177292953376739  6.3089707598107339
  3.0924600330450898  6.3299689158045895  9.4654289626031751
  9.5744677897483221  6.3786508104516049  9.4761495357389336
  6.3293182042212566  6.3754221613010058 12.7294440611796791
  4.7851516532634761 14.2493318972553542  7.9284162524198685
  4.7762925200298803 10.9948306045120621 14.2691834374929041
  3.0697964032970306 12.6362619243439038 15.8396715989611803
  3.1846077791364631  6.3688977871880850  3.2004888884447391
 15.8700103154545644  9.5217435452929049  3.0699908808655314
  3.1051702737537639  9.4754462668242514  3.1347272579961585
  9.4717110335008741  9.5007726295990889  3.1203024001989075
 15.8020066196213200 12.6063175630274049  3.0575015328146633
 15.8418177986579067  3.2806279703227634  9.5789355688196114
  6.2714876536846020  6.3582666200005740  9.4703619122051403
 15.8460187291226582 15.9432950749093632 12.6980021999433692
  3.1016765791726590  3.1510213607962845 12.6327911428266315
  4.8291989684204237 14.2213629274484177  4.7360669151461599
  3.1742129627826419  3.1424048977535710 15.8564495284389562
 15.7705439068791140 12.5913211670645211 15.8161744784694225
  6.4276444023755550 12.6437172424183117 15.9261120845864657
 12.6120937960517328 12.7108629941030120  3.1291424434352413
  9.5935506323534536  3.1618427900091972  6.2468503311811441
 12.6981219856714631  6.3082877995132076  6.3143449069661024
  3.1304389456647930  9.4660182581083365  9.4733362449124030
  6.3556829365204504  9.4681999118043692  9.4639679727901402
  6.3878570303479236 15.8849107601926463 12.7465156069206937
  3.1035580542042238  6.3161555450758184 12.6772665143132137
  3.0563638176291374 12.6003644915725772 12.6706990533693435
  4.8279106265815086 14.2860232483184895  1.5888961053625761
  1.5851865362282722 14.2262630391126308  4.7862876053951178
  7.9489695701341070  1.6240661955322184  7.9449024062660589
 15.7856012991147328  6.3517328224185450 15.8253225098269628
  2.9783090518258217  9.4686747622544285 15.8349101095891598
 12.6777306048299891 12.6804696114644280 15.9010726065536119
 12.7479671393607354  6.3360168748767380  9.4610240395609821
  6.3495866961753800  3.1480620396771539 12.7347166984957720
  9.5542522010854452  6.4154987579109850 12.7369443920203462
 12.6881098008067283 12.6395766370927198 12.6676047950142969
  7.9588684673029473 14.1817295835386314  4.7703348045723715
  4.7429730062344237 14.2685197249881295 11.0534473706750784
 12.6863617290255117 15.8432343086025735 15.8579658428440133
  6.3976344587427718 12.6319891308469465  3.0953624740420440
  6.3173262892302970  3.2415365515376027  9.4841186177581918
  7.9344906514159659  1.6235914160423788  4.7365047562989249
 14.2841541574698923  4.7764883898700807  4.7975452095792344
 11.0746183437860530 14.2767378532097649  4.7530120200369073
  1.5690663376358742  7.9144969977139592  7.9273972164675470
 11.1391611474687426  7.8917743858049878  7.9031142982058373
  7.9394729763181324  1.5600246860641065 14.3306769502659499
 14.2833215444105104  4.7739068749204829 14.2624978971855469
 14.2473420197247869 11.0589706856798795 14.2778965630120425
  6.4069942195331846 15.8607279077620440 15.8380413047736983
  9.5174629258751011  6.4060571740619974  3.1770794408747625
  7.9351930312373700  1.5571133760648546  1.6080292453338318
  7.9737214278726078  7.8995687806288979  1.6221275519751230
 14.2225732906560864 11.0594517037354336  1.5426038444112296
  4.7746901851790593  4.7503859151957766  4.7389901135099501
  4.7301341488827582  7.9149211773344605  7.9296431298518648
 14.2574843679905818  7.8966054301651996  7.9241060231328522
  1.5469093621302779  1.6366189333316239 11.0851214547369779
  1.5382950334545078  4.7843551064612093 11.1037333518777253
 14.2793502368170753  4.8083623744856281 11.1095568120709629
  1.5154670446459344 11.0117043560735564 11.0873812682842843
  1.5260925414086222 11.0687055552735405  1.5354481327367200
 11.1229426028318272 11.0737176339274193  1.5611292894327922
  4.7446317278879802  7.9515361475517468  4.7528989140244882
  7.9598894882773088  7.9047225375119403  4.7155215847819312
  1.5406359005165995 11.0655006767358266 14.2564007577422807
  9.5295403766177493 12.6534623339125005  6.3362054118779172
 12.6906428018304656 15.8713396117204830 12.6804975694177067
 11.1370987506819130 14.3441100763999643  1.5701779796892048
  1.5617663408738036  4.7604435360462727  7.9261689862250426
 14.2892905931261733  4.7758594161739989  7.9332489548627283
 14.2139538722201983  1.5974508830335774 14.2532878638405354
 11.1303108121585890  7.9490589244725411 14.3004611962442354
 12.6087338005937788 15.7855254612035250  3.1700091875626319
  6.4121480193560298  3.1399666143792824  3.1322644907916608
  3.1632065873068940  3.2555521821536026  6.3328685198744399
 12.6878087114462375 12.6565538135332076  9.5414472334548588
 14.2411784919648099  4.7933510462095246  1.5713971619998228
  1.5274537051137387  7.8884000890533841  1.5690310542337544
  7.9511088477898282 11.1162579368152894  1.6321020683040384
 11.0380532493214130  4.8096970757245483  4.7186928166032853
  7.9781341154383014 11.0604539002332238  7.8839436632208253
 14.1927431103081236 11.1055317391985806  7.9485294941855393
 14.2385498478134682 11.0875737543936133 11.0745411417163204
 11.1871809217813674 14.2304775561730068 11.0861715782061587
  1.5014346571922219  7.8946631186884675 14.2603098598877622
  7.9645352262964471  7.9546789009795349 14.2904770595256210
 14.2838247519149846  7.9394923473383878 14.2639998338554719
 15.7583557750908323  3.2300381326611154  3.1704054124518644
  3.2274847417155805  9.3936263701965927  6.3276764777720098
  9.4832443351243612  9.4297941786299138  6.3226685375308787
  6.3743292554638957 12.5761052507135300  9.4755893962720457
 14.1796731311528443  1.5730900975352236  1.6267275803845707
  7.9578142933095313  4.7692950396465283  1.6693319804779116
 11.0552604916219277  4.7925379170152409  1.6042018792364348
  1.5897344931594484  4.7350158460405449  4.8025829380919962
 14.2684425239300943  7.9344612229276956  4.7515356259688906
  7.9406380637707166 11.1583797517891821  4.7386887125206405
  1.5002966634614827  7.9344135185814597 11.0873922340506486
 11.1882253861817791  7.9580590167623289 11.0903319918717500
  4.7682765421729316 11.0368507793366035 11.1404031215835229
 11.0921755410084941 11.0897869979034187 14.2819169850443597
  9.4744053847473033  3.0752049494489402 15.9161397812064109
 15.8391281495716463 15.9239815794562247  9.5663554928014065
 12.7537425469332284  9.5220919711891128 12.7567272099495099
  4.7501958241221116  7.9421185693325107  1.5567983231191764
 14.2323705494355579  7.9166656078978246  1.5727744555835570
 11.0910656458359416  7.9018985870389633  4.7048794744227500
 14.2611091345246628 11.0577887478989538  4.7504562912545554
  4.7322841361015131  4.6752974339636602  7.9009607702551543
  4.7038762797335973  7.9535184804260419 11.1105599362737664
  7.9622249217145660 11.0437482344505220 11.1124532163953802
  1.5035087180319935 14.2432508141136331 11.0836484905073540
  1.5234959933531000  4.7187751730637437 14.2675408377443205
 15.6971998559629604  3.1949933158762449 15.8540711528906400
  9.5277246316043538  3.1122214567536255  3.2045628172397875
  3.0213449794596432  3.2656943257987683  9.5698920002388714
  9.5778962012764151  3.2006779094042335  9.5112999625681187
 12.7603659791776725  3.2794570220626720  9.5241034581616670
  9.5701798345431630  9.4205103578099276 12.7351915977239543
  4.8387675980594960  1.5665101302555247  1.5781693602750666
 11.1996983186251438  1.6016945835502487  1.6097085365884778
  1.5675557414197847  1.6730865739850440  7.9310939747363491
 14.2812695800620268  7.9456024197477131 11.1005998598402638
 11.1553437301283758 14.3468726819956593 14.3101886476169504
 12.7334894610535390  6.3454310903588720 15.8078067752295421
 12.6743537967005793  3.2960836909555011  6.3012175340250058
 15.7674054736647964 12.5959404741167020  6.3795907041393294
 15.8313283924495511  6.3133589731641688  9.4586846107416740
  3.0430668374884777  9.5195185902479391 12.7225174218621238
 11.0833840493600917 14.2195473326289328  7.8824586145971249
 11.1880071339249341  1.6327052227237515 11.1575045305224023
  6.4403399126792200  3.1012648970463568 15.8704878051531377
  9.5999700605704046 12.6830550848073766 15.9571888114458034
  6.3830938045926047 15.8974656132300023  6.2926955665180619
  6.4038967818986707 12.5649951550871535  6.3801024023204063
  1.5484028936899843 11.0687335357930685  4.7933888081118718
  7.9805122732622698 14.3067082073639540 14.3402969968355816
