Mo Nb Ta V  W 
 1.0000000000000000
    15.8515778005355408    0.0000000000000000    0.0000000000000010
     0.0000000000000025   15.8515778005355408    0.0000000000000010
     0.0000000000000000    0.0000000000000000   15.8515778005355408
 Mo  Nb  Ta  V   W  
  50  50  50  50  50
Cartesian
 12.6233735569024805 15.8895846840931192 15.8449746567678975
 15.7965320832868805  3.1697597330630360  3.2474770508136643
  6.3643649994932012 12.7822251065780268  3.0884378578206153
  1.5749727725188514  1.6551176083293926  1.5160073421776064
 14.2813570347524745  1.6507376945183443  1.5307152347691224
  7.9690894359816680  4.7029157050574995  1.5176755287272059
  7.9544758819842043  1.5495724333168563  4.7153934199560847
  1.6025958007413161  7.9461959287977892  4.8052043884778488
  8.0068365979268776 11.1758129918033191  4.7828279080973068
 14.2263204067459217  1.5617057224563446  7.9786765295792792
 11.1104456817195967  4.7591736024658697  7.9329441325942875
 14.1623764905382785 14.2694548243306976  8.0432819784999232
  7.9574022706834233  1.5636251730263624 14.3446635690039326
 11.0977625282769878  4.7256131005797188 14.2802161325229680
  4.7932087045411160 14.3378549128743771 14.2720977925470081
 12.7285230085067447  6.2947896710587203  3.1849351218758875
  7.9644771162230468  1.5173515108895310  1.4189312816425712
  4.7595472454163090  7.8879751434645806  1.5921140557545803
  7.9522067770627878  7.9231156523993480  1.5882086488699503
  1.5638834166320663 14.3195856007240394  1.5528962282620540
  4.7955507454229780  4.7159105817190285  4.7424211590747811
 11.1063897551427626  7.9352812636283936  4.7636673539189429
 14.2356830409792270  7.9014429675737086  7.9789096228657632
  4.7892028740079677  1.5523529810715400 11.0146136703398980
  4.8153866512933678  4.7210555168361168 11.1055765855927344
  1.6080021379387011 11.1071322135671728 11.0979594884328936
  4.7842197307817411 11.0838371970200633 14.2099730078988511
 15.8947414232605091  3.2415272168304132 15.7251797001006075
 15.6889458460684796  9.4414757481910723  3.1389028378658939
 15.8903857358901170  3.2131662261836555 12.7470010011696235
 12.6795721344610914  3.2825471411815412 12.6340156102634928
  6.3642103118544222  9.3719438053354978 12.6141568642375894
  6.3286159735555412 12.7416147879297128 12.6357588748987286
 14.2055767943404057 14.2815107310177662  1.5683733191673259
 14.2220093539101757  1.5682569041435195 11.1802235290949614
  1.5654816382058589 11.0774814823847585 14.2402106099109638
  3.1854936333159962  9.4787667384295737 12.6187566524875567
  7.9572800897617091  4.7243389210483411  4.7608787633971215
 11.0924457926132707  1.5144346200035488  7.9795118019082327
  1.5797696909484058  4.7292538939082203  7.9515548901627833
 11.1455501443812697  1.4751445125691671 11.0917708708822200
  7.8847491309943782 14.2791006340738011 10.9224809492848713
  1.5840939619009222 14.2997910167868092 14.2479603704958961
 12.6145135764179859 12.6469493998431410 15.9913346501939095
 12.7220492644827257 15.8299099379540671  3.1565607188870723
  3.2266203067275994 15.9271709045647629  6.3135668509343326
  6.3431268195401334 15.9157538721720222  6.3295013735822039
  4.7646994167131371 11.0764759422823147  4.7979320072432357
  7.9910957245839080 14.2322207361312429  4.7865881282331504
  7.9447729701778709 11.1988024105392139  7.9968600070589000
 15.7668582307466405  6.3322454353135535  6.2687015049258017
  9.5133824739092123  3.2449996674843198 12.5543072420509105
 11.0864568091746314 14.1959790903650802  4.7750012038074043
  1.5747408045805500  7.9274895683334421  7.9254170674235382
 14.1084137324926324 14.3380549339380732 11.0835965115223551
 14.2309631902856122 11.1179227931019060 14.2476634101642006
 14.1820902842019780 14.3691707780790718 14.2409125614025314
 12.6959351473844944  9.5378860174120721  3.1089300712461814
  3.2393556810365363  6.3429303038467850  9.5933896621615453
 11.1242694235228399  1.5768669909994586  4.7471216523659665
  4.7212077429576009  7.9383779859391543  7.9163614551099135
  4.7224911068198345 11.1411551703812464  8.0144137154111839
  6.3965946427592666  9.4734989725396037 15.8056166099355124
  9.5757468166491666  9.4195505046148380 15.8123767089435443
  3.2616645395123900  6.3045863478813118  3.1470627151365398
  3.2105550435104990  9.4510793643438138  3.2513514801256256
 15.7511507472211694 15.8439033419124726  6.2874995514508614
 12.7614100610855505 15.8449762509531258  6.2638631893092693
 15.7135435436781172  9.5202205888395444 12.6490663257973566
 11.0653877266401484  1.5960505200754003  1.4658664844458984
  1.5412114489021156 11.0533963681900911  1.5562295148223846
  1.6102521068388653  1.5533974498784371  7.9722020699089819
 11.0442129169291618 11.1691196694705663  7.9632162527778876
  7.8632107538086844  1.5784559877157514 10.9768290420282391
 15.7748884512139895 12.6622692389203042 15.8502868107422774
  6.3323157859456201 12.8387725679687410 15.9074604876831049
 12.5933614888090659 12.6462787051557175  3.1116604675560171
  6.4159363892845498  6.4494312335898485  6.2783746771330771
 15.7752145037828342  9.4967021779266680  6.3762769098347345
 12.6746634638725482  9.5284895506232470  6.3145227897989313
  3.1678901757807854 12.6650460205483242  6.3510307383358677
  3.2066684280698730  9.4774061006110859  9.5732177375428726
  9.4577419210695339 12.7497926752317792 12.6378340153461082
  1.5610473268012779  4.7725950435562705  1.5595356055212295
  4.7842823159024386 11.0694045365865872  1.5621011882413320
  1.5735079660183122 14.3051685958560437  4.7440861832604426
  4.8065851704197984  1.5309452418167595  8.1005222184564740
  7.8938526361067067  1.5174715073920280  8.0559367263705681
 11.0361031776173650 14.1980259571261005  7.9983387092993095
 11.0747583220257155 11.1872826456939887 11.0457737749487066
  3.2901681977313415 15.9179293664350894  3.0517291782472937
 12.7038352847748666  6.2205330937997037  9.6756912177816208
  9.4288995345730022  9.4315128522214096  9.4840093786014279
 12.7098284843598996 12.6988883154210122 12.6249590812688872
  7.9173147402091635 11.1082449910316701  1.5851096758477592
  1.6091869762892534 11.0155723823271892  4.7909937548113257
  1.7106915076221854 14.2785667565530385  8.0085790403458184
  1.5231950599782171  7.9365478847643764 14.2277863657168737
  7.9096370835832381 11.0719759226246239 14.2175413378189504
  7.9288322702363674 14.3987681824446536 14.3982615818510595
 15.7626302352794880 15.9166746552688227  3.1544597859243297
  9.4992270571130923 15.7651554631347661  3.0619523826258082
 12.7418189716504990  3.2176761280213886  3.1810503592358206
  6.3488366565024270  3.1046434241447178  6.2845637594965567
  9.4660517584856123  9.4801824772026002  6.3309092283444155
 15.7440963395729465  9.5382432334464244  9.5595101742342159
  7.9432246089679950 14.2358712110020029  7.9802944435751364
  3.1917760238421091  6.2567230756194929 15.7886357075689627
  9.5559461568184947  6.3364807042367319 15.8286025241218997
 15.7508099147423035  6.3813096133088960  3.2120718058640017
  9.5207337118157511  6.3164825104310216  3.1729084750324641
  6.3849715229083337  9.4361060227666496  3.2919758869537046
  6.4046845876442573  9.4910957012434025  6.3435490539055763
 15.8853484230283755 15.8813034982631542  9.5961310860726226
  9.4820027600227093  6.3062835998632103  9.5554716133544204
 15.7904444699782189 12.6486402891371448  9.5544102040074055
  6.3899465169945175  6.3421392892826507 12.6900413444011679
  4.7842331667111093 14.2857993369635672  8.0326103332653549
  7.8612850428403895 11.1182813592583667 11.0613672270445136
 12.7034311652974647  9.4606146456706188 15.8521158495220238
  3.1753444846689360 12.7257601710323023 15.8002965686923247
  9.5204052594936712  3.2114619141062843  3.0779672173752672
  9.5737882642382370  9.5311775746386775  3.2188250253841404
 15.7867490383267395 12.6922514081609847  3.1525733821968078
  3.2112446014837013 12.7213870909745363  3.0920768035621315
 15.8321862797824124  3.1770386931904868  9.6253759401555303
  9.5695784157286017  3.2236000445464503  9.5602623345502913
 12.6604918843402316  3.1812338511917164  9.6086990066584246
  6.4082713745129132  6.3463767855764877  9.5831327921358991
 15.9235572461494659 15.9516809656526171 12.6939791758866800
  4.8211869634671247 14.3037896126608697  4.7741440235150012
 11.0769869883817549 14.3499207442851606 14.3030538852381781
  3.2151657448694269 15.9273062577484019 15.8198086892199949
  3.2309484791963494  3.1515067997075157 15.7505327945124183
  6.3348649333501799  6.2983297078884171 15.8252314735102981
  6.3967780683129396 15.8418522024992061  3.0536043612689112
  6.3630590370284619  6.3139253134262487  3.1864207947991039
 12.7277984837167626  6.3355633330253118  6.2913319273246540
 15.7616193534635354 12.6884043305446959  6.4074061913604341
  3.2319071801619588  6.2918933685185197 12.7052270888507461
 12.7307466649291108  6.3192487720866453 12.7448588896468582
 15.7462946975719866  6.3392478085046164 15.7707074869568462
  3.2590309590387139  3.1241636927257397  3.1117449335095193
  6.3311901097184364  3.1205954209886024  3.0766847001759645
 15.7902928546850170  3.1670067651191882  6.2971197023823251
  3.2144308493031386  3.1467282722113117  6.3248562391888372
  3.1913854151732015 15.9423167161103656 12.6922903001721856
  6.3019247955537772  3.1470780739092166 12.7158846193298807
  9.4987980181025105  6.3403255901577653 12.6817673842984249
 11.0704199031047619  1.6462912750115186 14.2789956926488468
  3.1900538027632930  9.4946948070731629  6.3469242847395044
  3.1380603546238506 15.8727737655322159  9.6300007497217344
  9.5032593609503557 15.8503532591083491  9.5062904010652716
  6.4074068031435871  3.2244634277087969  9.5547546859927532
  6.2943495897239679 12.7113404342361012  9.5279612926447079
  9.5097169125835759 12.6761858718456590  9.5202268980667757
 11.1208019598829182  4.7456962609499760  1.5566884927937057
 14.2589464075532675  4.7530046453651495  4.7604459601469991
 14.2309742542778928  7.9163287680417769  4.7361622969105719
  1.6107236952717201  1.6370800473448084 14.2387548469214842
 14.2613943788904649  4.7297532207564910 14.2498485566793178
  6.2880485789645144 15.8933216227159022 15.8972769903914752
  9.5480830430329799  3.2225747397052160 15.8779899009663659
 12.6767365061082735 15.8950291207245282  9.5021569613320604
  3.1591149224023316 12.6357015065855585  9.5449317399267350
  4.7624403002502449  4.7427965256157139  1.5426635862714950
 14.2106487803884747  7.8774348696050449  1.5876802372568406
 14.2297394414503344 11.0857474021397753  1.5563978007824379
  4.8075834946565692  1.5504156199952752  4.6847238916330705
  1.6151032688129296  1.6351250625342568 11.1490452016016430
  7.9033083702475846  4.7409227270559171 11.1158893170629174
 14.2731881589687877  4.7440051464873720 11.1857914405822978
  4.7865498199843950  7.8959548016816736 11.1225413384399197
  1.5696182762527278  4.7689802082053641 14.2415096091792144
  4.7848569324596593  4.7153353047554152 14.2358770357456770
  6.3636609972849847 15.8039519970763340  9.5321974219577648
  4.7917938110619049  1.5567069979605932  1.5121615326416813
 11.1042511316013233 11.0620155665202748  1.5918450666945416
  7.9517285646134699 14.3110601371014159  1.4890737219107943
  4.7657735696850159  7.9230744617116118  4.8038328941259074
  7.9695689687146745  7.9103023023715888  4.7722834677024162
  7.9282964017572937  7.9189692707105923 11.1177341495620201
 14.2361779785628393  7.9155740098018894 11.1561460412867604
  4.7690533659791408  1.5840456522419066 14.2681254189815601
  9.5355762629766812 12.6589255732683519  6.3546149798399245
 12.6624808501880288 15.8940381776828765 12.6932114294297769
  4.7871148479355998 14.3337476097486718  1.5348244905440860
 11.1002412533497790 14.2852989905750469  1.5402001335874973
 11.0683139811299487 11.1420312758302025  4.8050656628661459
 11.1333243698934883  7.8927148599932480 14.2673875335608127
  9.5189261719744582 15.8656151569205797 15.8884177849107218
 12.6912977664240891 12.6440716118482293  9.5419180391457914
 14.2309489242160279  1.6047311154565209  4.7360302235196761
 14.2303685414281880 14.2625141469007097  4.7209945619381646
  7.9281700312585750  7.8989774644606099  7.9306217156456391
 14.1712117870797467 11.1148678105527914  7.9616775514953142
 11.1164004840050055  4.8086101012445139 11.1216297452276809
 14.2072031101980194 11.1172159309726144 11.1045736942149418
  7.9650176337740026  7.9077378711258222 14.2597896935588260
 14.2456297410716441  7.9407074622211500 14.2485197681401132
 15.8687197574719381 15.9349064904661688 15.7752719871895000
  9.5109500437313930 15.8381649993187636  6.3756187645837352
 12.7405440437524522  9.5432508727277217  9.5425684192743336
  1.5966565552420626  4.7434700208387746  4.7298579979403099
  7.8997940427278390  4.7009966042953684  7.9279621629052288
 11.1206144155335540  7.9099344448779547  7.9654024991687260
  1.5307519220546100  7.8948853678739210 11.1477198576759520
 11.1261620245064066  7.9167235800727909 11.1165708681970585
  4.8071100376353408 11.1378300765964031 11.0738078079750384
 11.0780218845523688 11.0975328172637795 14.2458967569858572
  9.5684641214877519 12.6927356007149896  3.0962985015016065
 15.7083708381754121  6.2963641526208125 12.7326934109641705
 12.6798559917341684  9.4526003921659143 12.7073087148876027
 14.2408080955625529 11.0999458129026038  4.7342686522929895
  4.8285635540014002  4.7204491676552864  7.9660025026503236
  1.5711468315375845  4.7548031242210467 11.1795719130556019
  1.6842307789025679 14.2620004858801082 11.0729230847654865
  3.1110894464963117  3.1760178876391398  9.5573930765570552
  3.1657407790664003  3.1286039341455911 12.7715206126403817
  9.5001367418410485  9.4056512292180390 12.6906740907409432
 15.8237415076099968 12.7089868302259337 12.5969686724195515
 11.1602357134652443  7.8869737162179554  1.5853113869105155
  7.9539249629406301  4.6841986197283383 14.2952035513782914
  4.7565738725107627  7.9345098504118310 14.2375036632943281
 12.7065278651351186  3.2571207832928297 15.8651743860813355
 12.7303966111622433  6.3556278524694756 15.7943181737904155
  9.4954767521475105  3.1225759196146523  6.3925797352699592
 12.7413593352706478  3.1766679936245299  6.2918286206497367
 15.7712143302464032  6.2998792617501262  9.5975066813998460
  6.3616166663749363  9.4232367249889126  9.5302367914850006
  6.3129425410353983 15.9027807693860499 12.6800136152171579
  9.4998611924661720 15.8865454690605947 12.6410258050535216
  3.2079505650817199 12.6996507924040127 12.6923852898369383
  1.5971976762541031  1.5669362455815874  4.7374572218496942
 14.2601095631303174  4.7358555375671747  7.9580993037681020
 14.2156017289084531  1.6224029261477393 14.2427177107120713
  6.2061801424638281  3.1616052765117053 15.8382176277067543
 15.6960697795616042  9.4558843804072392 15.8791674493920869
  3.1721905687979581  9.4979289401197811 15.8214454067572134
  9.5414846469699484 12.7088380859472743 15.9225290946250517
  3.2113830201813434  6.3236782478393136  6.3433953943893586
  9.4775850424612393  6.3932781710324678  6.3779848033556021
  6.3632972807602961 12.6552818263399836  6.3794314663096472
 12.7065391893551531 12.6347474617771329  6.3452812261993135
 14.2923181155032530  4.7563406468902674  1.5561779908344124
  1.5564061382618350  7.8816179487042746  1.5462319238762614
 11.0922600327570038  4.7307600645854730  4.7800584515447122
  1.5930672612147190 11.0796098092766933  7.9577515651932078
  4.7385477229933448 14.2919487813334474 11.0047821098811784
 11.1094763177580145 14.3081693558023808 10.9704234794117745
