Mo Nb Ta V  W 
 1.0000000000000000
    15.8515778005355408    0.0000000000000000    0.0000000000000010
     0.0000000000000025   15.8515778005355408    0.0000000000000010
     0.0000000000000000    0.0000000000000000   15.8515778005355408
 Mo  Nb  Ta  V   W  
  50  50  50  50  50
Cartesian
  6.3721677630461668  3.1846953009101364  9.5005306945078587
 12.7118423642378335  9.5303349224361948  9.5091680703791202
  6.4286448673764633 12.5259865001390942  9.5268849208833757
  1.5950052518162914  1.5777714691942830  1.6467464547806263
  7.8961904524120783  4.7367430775298747  1.6736960804202308
 14.2604720800312670  8.0064061639113753  4.7993089176049741
  8.0573790100133635 11.0487075573608315  4.8226840985836619
 11.0663353036444132  4.8059995025813009  7.8554979526572497
  1.5655051650765297  1.6020617100946173 14.2677464980636319
  4.7744419577859007 14.2100254535782096 14.2478450622622805
  9.4884605912385975 12.6074026066358780  3.1070839462011319
 15.8708911308952558 12.5456477613170350  9.5242694183128052
 14.2466884591855578 11.0621668880312072  4.7761094818512442
  4.7811053381077739 11.0678722212976162  7.9143961690269871
  4.7616584336275194  4.7564956328780550 11.0605257080162858
  4.7334690832685888  7.9612854261779997 11.0561658352065209
  4.7459140875501262  4.7382099234909214 14.2930091325632347
  4.7595401578120811 11.0710873721642571 14.3042739146734181
  6.3790774178394631  9.5521498085125600 15.9113469807514250
 15.8477854438387613 15.8194771539533896  6.2876468985431151
  6.3494123752619878 15.8203732805293864  9.4870089819028607
  9.5299802210996969  9.4597476558308795 12.7738458019809418
  6.3360635622450925 12.5799152439202242 12.6054522766056500
 11.0302998888398989  7.9757168656855493  1.6707505213898504
 14.2746873107958177 14.2023710621771020  1.6014067568646648
  7.9795991360435199  1.5326756040958947 11.1264448275625174
 14.2711832895678814  1.6315373620569404 11.0562117484444862
  7.9526560875356198  7.9609124779245741 11.1240339710402534
  4.7429413477137361  1.5469920198079659 14.2494261420774269
  7.9422178987680132  4.7279115080778995 14.2664319369285124
  4.7578666083869763  7.9781080581539934 14.2645185527891947
  6.2234418545188142  6.4330043063577076  6.3259050974612201
 15.9226546100893565  9.4811443097682808  6.4575179997929348
 12.7757428633543473  6.2894923463867700 12.7310658533301293
  4.7356428977389662 14.2514743266480792  1.6622965969198777
  1.6940656149145417 14.2460900422127512  4.6876557839692978
 11.0512078867704648  1.5469615099513410  7.8529873436044806
 15.8922877586715163  9.6461676481160588 15.9091673161589711
 12.7047998042445940 12.5117694446522467 15.8676716710665051
  3.1864322830001752  3.2915995425864484  3.2508343798925754
  6.3669520175714238 15.8528164130826568  6.3064006631677012
  6.3902429550350863 12.5476143279947383  6.2912573093203648
 12.6494523520147926 12.7333751258617518  6.1970216783698602
 12.7689569702027264  6.2825834069426376  9.4772811640227612
  3.1219410026868268 15.8754270617399929 12.6350951664771483
 12.7087006232930939 12.5550127596073615 12.7420507142324464
  7.9756254205297985  7.9570617669494661  7.8205730968763696
 11.1041621891276225  4.7693948662500718 11.1079084350918418
 11.0466192863803219 14.2673333025180149 11.1548023927332753
  1.5467631884963688  7.9708350690625505 14.2690534597564334
  9.5729535296093005 15.8506217143176951  3.2805882905936885
 12.7175618739390526  3.2777380415748287  3.2337692701214600
  6.3713743044226927  3.1960227995818582  6.1980301102151909
  3.1431898591798206 15.9162351834802180  9.5230779425093282
  9.4243674242210833 12.5630224458200086  9.5001798170312881
  9.5571732265852365  2.9731870163792480 12.7088246422863502
 11.1920684617730544  7.9053287455167638 11.1390257117756999
 14.2370533575890086 14.2042077946603218 11.1205474624247955
 11.1104071708237058  4.7486467004954838 14.2797624941451620
  9.4726809898178193  6.4686363341474040 15.8110896728180172
  6.2930844383757005  9.6048256478053045  3.2416822588966165
  3.1491965550397678 12.4986887684165957  9.5149713999617127
 15.8290035956256734  6.2160521488843719 12.6256820127524776
  4.8405701029367361  4.7268863789970981  1.6506404203836018
  4.8122509747422200  1.6139148828445604  4.6941063123541440
  4.7518036255499654  1.5666649028520085 11.0575893750102487
  7.9460763320725647  4.7401805969180337 11.1031640541217609
  9.5673414822352107  9.5383585721663753 15.8709422937153146
  3.2040592053376558  9.5343498857723183  3.1257732158408231
  3.1985200601642010 12.5272435788031213  3.0608499093314050
 12.6149123160027230 15.8299729392761019  6.2102633261776914
 12.6806886160353045  3.1741535018723717 12.6314925001408032
  6.3442380794531497  9.5390129534580570 12.6228727686398017
 15.8317884567954810 12.5318686982382772 12.7012710828268052
 11.1388480989435816  1.6204894212442296  1.6416386232196565
 11.0420956665913224 14.2605624345763218 14.2128041071335041
  3.1117076799450860 15.7835479763433213 15.9299741865585354
 12.7300230854326362  3.2650035458262678 15.8617737423950764
 12.6614717034410127  6.3815831443126534 15.8488455008902296
  6.4187619811801548 15.8084623007324190  3.1917028126465428
  6.3109563765825456  6.3360612794890434  3.2641481246212511
 15.8696921038859120 12.6789663292228951  6.2918479220004802
  6.3754661435406810 15.8998205570688338 12.7065291584134421
 12.5480094170052716 15.9452736109880018 12.6546692233239231
  3.1645842498885584 12.5026857791627499 12.6635286950407320
 11.0336951245853445 14.2212309816915887  1.5961665535249239
  1.6309627857319215  1.6183249163192153  4.7028129541069230
  7.9118425794392593  4.8473640630608097  4.7442460651860774
 10.9909445954693510 11.0333961241448613  4.8154185773187068
 11.1303436895006058 11.0426555594913811 11.1222128149371109
  1.5978434799294499 14.1958339188577796 14.2541492978828934
 15.8116016439730931  6.2976459566335912 15.9096244410338574
  9.4877294772070737 12.5848822700690235 15.9480104724433964
  3.1729140843507646 15.8709727678643624  6.3039796099039815
 15.8060962988808598  3.3980298759008205  6.3271908296460699
  3.1025425511042144  3.3505671860511090  6.2687305109923059
  9.5272743488531955  6.4364486659433124 12.7749128405328332
 14.2804065262774262  1.6133776089590277  4.7445817495849454
 11.0045465133269058  4.8934920368378352  4.7487970981870715
  1.6264424501484278 14.2016018659167695  7.9068355353378230
 15.8580797394096749 15.8206400503450517 15.8920377805392778
 12.6633814984954753 15.8525957734658736 15.8397037342362079
 15.9001012764432694 15.7684800017293014  3.1689452254461665
  6.3893072896960215 12.5587861093751449  3.1459082743693001
 15.8636894978290659  6.3599947404654618  6.3939280410741324
 15.8994049093133594  9.5736789207311226  9.4933773600093616
  7.9588853425164352 14.2163514764034922  7.8675103730271267
 14.2389893028109054 14.2139381542804255  7.8854230442080775
  6.3581373997902810 15.8415189128341947 15.8908785628439109
  9.4591690765014214  3.1098724968095479 15.8354909386827778
  3.1387935871860684  6.3944282377117334 15.8727782231502843
 15.8242629605571548  6.3548287931492995  3.1829191332374931
 12.6594977443492738  9.5520174776234708  3.1494098495788503
  6.3095785362931975  9.4865389153938384  6.3396849935718240
 15.8798221633655512 15.8946352109692999  9.5310645154741405
 12.5954847407167829 15.9006037391447173  9.5112750331449352
  3.1179940573440854  6.3602022932154565  9.4541789335170225
  9.5339380146317865  6.3884737145908863  9.4509401501940378
  6.3438726966837118  6.3850005960364440 12.7259618706169366
 12.6348154828280119  9.6263620853378136 15.8650262932366211
  3.1499148293628183  6.3707611918178904  3.2233025735776422
 15.8365207247832895 12.6366210270998280  3.1385744623206580
 15.8656966487817215  3.3186364387178378  9.5045065398735638
 12.6680139345868934  3.2228575133207067  9.4925228810134481
  6.3262746524183679  6.4044887870252243  9.4459758054097485
 15.8764749309079178 15.9066296013768671 12.6597967753301415
 15.8142136449080795  3.2249744555361648 12.6333424298743502
  3.1151106147902068  3.1637728346451102 12.6173142336343336
  4.7542352469800493 14.2239652562865562  4.7442979897972553
 11.1120453853738663 11.0834640551685766  7.8021448703698431
  3.1891801338018286  3.1110979645731076 15.8623522175458174
  6.4131514690900735  6.4022761038146552 15.8181783254542694
 15.8704571200853852 12.5746722936854205 15.8825115711129037
  6.3321987489247764 12.6156585418305784 15.9710424729894811
 12.6716046206781314 12.6727548371615217  3.1884790977511237
  9.5313131149115637  3.1175097826320237  6.2615231474675594
 12.6870772527437268  3.2293557663663846  6.3650215145724180
 12.7272923435077825  6.3814473218305450  6.3267750635562328
  3.1685145695406192  9.5113613476249128  9.4818459015613019
  6.3752382995204719  9.5652104250422010  9.4927427756666294
  3.1571286751122782  6.3325868393375391 12.6650443424965520
  7.9185546067029975  1.5322634378176374  7.9047090529312269
  3.1028663347737853  9.5493561169036081 15.8763494758193389
  3.2000177819764701  6.4310432377231281  6.3535324339234354
  9.4485462092121004  9.5294702225819456  9.4755093807412951
  8.0378378556283074 14.2151605334221962  4.8282114445504565
 14.1926976981551238 11.0772573757765755  7.8463950595055589
  4.7953522266010742 14.1986246269984377 11.0721166006838114
 14.3361949024301953  7.9894039009992754 14.2774108621158451
  7.9696159897882213 14.2396124773709847 14.1923220750346371
  9.5413742203938980 15.8862168090422706  6.2771399441911706
  9.4636884405705750  9.5003930166099213  6.4038905202533130
  7.9008820526091821  1.5440746922115172  4.7892044948285619
  1.5492094848521121  4.8397945331241132  4.7921490998193361
 14.2668145393082089  4.8288540484685081  4.7567097446741364
 10.9962825662115442 14.2250986991665673  4.7845861736377309
  1.5957849470750225  7.9366467175707411  7.9552215775754194
  4.7714909890296830 11.0846748396891073 11.0709071782679480
  7.9381331270821995  1.5106557418274247 14.2433826467841307
 14.2448126693109938  4.7925874079168107 14.2768270964006962
 11.0965210982766500 11.1021528163985845 14.2665273731523179
 14.2966278368964428 11.0510995836700712 14.2884510969030725
  9.4647526705162477  6.4041689265171655  3.1940955509333895
 14.2572467182043461 11.1081402241183760  1.5781072857783107
  1.5909845752020995 14.2258528716097370  1.5887813372379374
 11.1166087088136489  1.5626490663043675  4.7497215951851333
  4.7799431775584589  4.7880792590287493  4.7463984928573932
  4.7468206317203938  7.9515539218666973  7.9373132803476523
  1.5628540818821366  1.6710250390190853 11.0554784596905140
  1.5731027342247648  4.7971891236336912 11.0763900795913557
 14.2652946865265058  4.7932462603801156 11.0603441070970945
  1.5874837921381411 11.0697239268916050 11.0892223315321736
  7.9549187120345524 11.0677046062000333 11.1267981698289429
  9.5355571640923866  9.5209051360443038  3.1362046438487767
  1.5744839993430131 11.0514305042682448  1.5946692572005228
 11.0711440078054064 11.0862474176994485  1.6194661308656140
  7.9541624029122522 14.2368675512057532  1.6069885743006052
  4.7283259094732797  7.9847075585260132  4.7619456755845988
  1.5637908044216826 11.0911447859164234 14.2629574955684948
 12.6411164403011647  9.4606258323638475  6.2663022041398557
  9.4890526551441798 12.6305626119356873  6.3697362776514783
  9.5451722411856288 15.9141784620964764 12.6877562175347105
  4.7625871476520167 11.0464901179364521  1.5975764042899869
  1.5830417526006839  4.8277339275757374  7.8971587393554961
 14.2534557333037633  4.8208004674828127  7.9435805918955449
 11.0722418361715640  1.5570331510681441 11.0894094330643629
 11.1667841237086023  7.9847671536715659 14.2526927957028580
  3.1303902850218774 15.7972834581143076  3.0988119193314825
  6.3601470162313198  3.1978687864442987  3.2338780439867758
  9.5519660945449711  6.3741770058831202  6.3634605505041453
 14.2469795497982581  4.7971994059663983  1.5956593629572717
  1.5491972684337194  7.9337004946312382  1.5806844069254187
  7.9486374298833820 11.0389586203467083  1.6228468335658546
  4.7407062346831186 11.0665944556540250  4.7424834937894218
 14.2713574038806055 14.2320379338162297  4.7436624196800459
  1.5805066117989364 11.0819513779232661  7.9098351984109270
  7.9511456711545625 11.1193402082823649  7.8769170216210309
 14.2497644012497098 11.1051098903260659 11.0695099988234649
 11.0751543507781225  1.5651394535224468 14.2746777810632519
  7.9249275283504836  7.9804580449841716 14.2766281919700369
 15.8084682933335685  3.2993065271992865  3.2015735600308641
  3.2171114617927179  9.4255567695090434  6.3801994040978496
  9.5480901580769526 15.8360841342545520  9.4927985786672640
 14.2574457280968208  1.5848076687337112  1.6359905474276826
 11.0297400444280260  4.8026075294051243  1.6323793339996100
  1.5630514707256304  7.9705653065215856  4.7597903829220423
 14.2843834985165685  1.6187042410153329  7.8899862908610130
  7.9481077597968923  4.7555863607957729  7.8855029762544140
 11.1229761020919433  8.0003638877220649  7.8532490486119526
  1.5405519518556638  7.9476034210219293 11.0864887758950328
 14.2483796156744962 14.2174949888388831 14.2520167663430986
 12.7223416405372856  6.3803230453599449  3.1937857432221266
 12.7413616326920973  9.5631345943105828 12.7878488038353577
  7.9191254395681492  1.5985750370482457  1.6519574311622853
  4.7681447662799874  7.9474161140155370  1.5890625105453864
  7.9571759737421024  7.9829780358646163  1.6864014793673572
 14.2609964766256976  7.9819993463796646  1.5581391670535683
 11.0307973682217462  7.9908369878831120  4.7810748786341151
  4.7567204173269735  4.7569984708680373  7.9006269249952918
 14.2456408179179483  7.9962348964429788  7.9230517537923220
  4.7379595042729843 14.1943755338859248  7.9096085468865747
  1.5948879483263327 14.1946639690027521 11.0901942526675210
  1.5771993281914047  4.7340334773869710 14.2785359986164853
 15.7713022466270694  3.2372672432462819 15.8654018560152164
  3.1286297400821046 12.5803092987956457 15.9106128715229946
  9.5001219105737640  3.1242131563827562  3.2740041539794009
 15.8578349241488858  9.5368646548818763  3.0873565764632622
  3.0672969028532608  3.2478722274291032  9.5270727324473814
  9.5498824687789412  3.1321984438404527  9.5053249193426481
 15.8451257712450584  9.6427360251587455 12.6384391620279608
  4.7758170622103959  1.5860577793859902  1.6901361834253237
  8.0441113707460357  7.9421481564702550  4.7632275515887050
  1.5348878820735041  1.6604919598040959  7.8865517589536154
 14.2972034476184664  7.9550900108941152 11.1023973697374068
  3.1909625140188003 12.5713437516193078  6.2970193662400149
 15.8803969918234937  6.3144994563223982  9.4604225741008392
  3.1405179450868372  9.5875202359742477 12.6573876505769132
  9.5065986831062865 12.5916587121352368 12.6678727498723696
  1.5886517708722887  4.7509008439211984  1.6118045545162962
  4.7424206239588029  1.6680424557874736  7.9034074626354904
 10.9951626800011688 14.2167852161464303  7.8414778957436333
  7.9547925290949326 14.2660655513756680 11.1278288489848727
 14.2553457380115347  1.6152534971465187 14.2797961912603277
  9.4586762665326845 15.9074319421611747 15.8334238405631726
  6.3756865833611691  3.0924471980589208 15.8516645151649751
 12.6821928569788476 15.7594597530710381  3.2568551520959432
 12.6352562588700970 12.6771815341846672  9.5156024758585325
  6.3587706566035012  3.1291816688325254 12.7148243524786349
  1.5825415495144564 11.0217904489812923  4.7397728386353402
  7.9127858792232137 11.0907002056758195 14.2802103808853698
