Mo Nb Ta V  W 
 1.0000000000000000
    15.8515778005355408    0.0000000000000000    0.0000000000000010
     0.0000000000000025   15.8515778005355408    0.0000000000000010
     0.0000000000000000    0.0000000000000000   15.8515778005355408
 Mo  Nb  Ta  V   W  
  50  50  50  50  50
Cartesian
 15.8232159018664476 15.7687144477007806 15.8359489252684877
  6.2999644057466986 12.7376036229649472  3.1169231768698373
  6.3626146903428298  3.1409285583909075  6.2951334626467910
 15.7492842839532230  6.4100073462505334  6.2533376553097595
  9.5839136426719218 15.8363371124178371  9.5446975453959322
  7.9922626795337450  1.5469767142156163  4.8053921059975986
  4.7532769015844503 11.1234062827209499 11.1039907384758134
 14.1292267233644768 11.1270938710771663 14.3105797913124455
  7.9320535612792575  7.9661066484201664  1.6420968332491623
 11.1193183614356315  7.9006831003184530  4.7275425446698174
  1.5695704500939545 14.3292675218002881 11.0889274811728207
  4.7564550221654613  4.7516852672892647 14.2833264598268332
  6.3671560713683171  9.3914132722770098 15.8808073392291700
 12.6808890207001177  9.4174393168515689 15.8274454224819969
  3.1316682246735650 12.7744214105255391 15.7978276988808233
  3.1544512234184245  6.4353603590377775  3.1672136644140205
 15.7361456807573088  9.4621835792638258  3.1443642966839196
  3.1927812006758409  9.4428296367859019  3.1493285738924821
 15.7330656279926888 12.7520058799098894  3.1600079788593152
  3.2096399864408109 12.7431108870473402  3.1182125275469104
 15.7730219888078569 15.8287017069212741  6.3587557130251202
 12.8217739822198702 15.7924706491161952  6.3835553927606261
 12.6520266816478024  3.1708389948658153  9.4398043799580194
 15.7645684956700567 15.6436099309487844 12.7225412059682714
 15.8485177581024566  3.3017118881488750 12.7149327499727338
 12.6577884902758981  3.2690770996747922 12.8159303709538079
 11.1917640337246240  1.5792291281601216  1.5786182999513327
 14.2543527799534306 14.3302778458638560  1.5290032031095591
  4.7850522889167504 14.3026287975169346  4.7973988698725920
  7.9666951465608156  1.6316828959262482 11.0398678009220639
  8.0211735785890514  7.9718502104202980 11.0653681688160521
 14.2304960458216474  7.9150305128009775 11.1369204891398237
  8.0035040682583514  4.7852270131134391 14.2920301377222305
  4.7841859946347265  7.9144126835114097 14.2698459371236996
 12.7386786472108327  3.2309586367561351  6.3561878769081037
  9.5049539076998659 12.6633584182023284  6.3467068316726429
  6.3485414663106283  9.5141608725926989  9.4708510646724502
 11.1605740157228812 11.1379733618780712  4.8019045067062418
  1.5326299987463041 14.3868394925991350  4.7010170567985163
 14.2315672715111710  4.7460944468530197  7.8991236750881582
 11.1423622147296673  1.5950684268276096 11.0614108805370996
  3.1670270697721299  6.4130060224526426  6.2957901899812070
 12.6832516198073186 12.7938708838531756  9.5444550631460316
  4.8642702052686611 11.1117756588340093  4.7005228848112433
  8.0129362909009050  7.9348009842216332  7.9477764021118125
 14.1676466855446872 11.1682099222751301  7.8671272502495073
  1.6439915789023347 14.3903791531679843  7.8890136056802858
 11.1044335746530827  4.6963242813620534 11.0967268011101456
 11.2101436406782735  1.5208858292486698 14.2949495017624102
  7.9126333048146726 14.2603572669047640 14.2599210609792095
  9.5875925911545234 15.8513401508660134  3.1722359600625163
 15.7914879598712758  9.4656688258593658  9.4731941600373393
 12.6397429217775841  9.3993468716010220  9.4952786457934586
  1.5613358898870222  4.7136446037333721  4.6784765067136185
  1.5304610689812699  7.9119631634342413  7.8979579867747951
 11.1207577374909761  7.9592164245444756  7.9233867590685181
  1.5061610361095739  1.5295295490816174 14.2557039151886755
  6.1851503436285178 15.8110610632064645 15.8102018285129127
  9.5568383200557960  3.2691894208361671 15.8617727381840563
  3.1593206234343070  6.3236545004612648 15.8347810766922183
  9.4395651866120165  6.3086639375635780  3.1715137309814745
 12.7637537044163523  9.4706594849423364  3.0578811302930311
  9.5870785909872538 12.6453153356085277  3.1444944082694293
  6.4203767272889927  9.4745008068177530  6.2805473245985883
 12.7336721844044103 15.7826277928514909  9.4968896726556409
  3.0522660125517622  6.3542653427314022  9.6110064312132266
 15.7225918395638367 12.7814496603543297  9.4671396424175001
  3.1618058604958597 12.7493101337992290  9.5352367806207372
 15.7958618566892532  6.3188413596319721 12.7513249913341422
  6.4627672961998135  6.3821513872780509 12.7479664618867741
 12.5783194909374370  9.4454840673504830 12.7457502827098867
 11.1465808637212955  1.5686481372637620  4.7994224183463894
  4.7174401320948034  4.6839642550495002  4.7351237525277297
  4.7934003958306430  4.6985730211549575  7.9664529754368312
  4.8438346456348373 11.1653416551251450  7.8149527936136041
  4.7149061486105248 14.3649887938871323  7.8866500683915621
  4.6997589115424665  1.5700603207326966 11.0346115712405997
  4.8096388071644709  4.6994832952262433 11.0723629633104359
  7.9879196159274253  4.6428313367060694 11.0440156644022629
  4.7520993524539898  7.9147181240456037 11.1072427781790495
  1.4964258380649258 11.1227881794729928 11.1098939390135687
  4.7421967271268555 11.0976103234799410 14.2947654448291157
  9.5457642749604421  9.4352581589262723  3.1789696402189209
  6.3828682655937925  6.3091600383191153  9.5109335990213992
  3.0922363966649478  3.2160988729025446 12.7354059652211937
  9.6157937908854816  9.4416187429834295 12.7561284684136584
  6.2727987991813032 12.7775236807555981 12.6581096392450529
  1.5044921621341820 11.0867286966206997  1.5856189394407973
 11.2169484899751950 11.0772870052294934  1.5026117604425846
  4.8868740438012814  7.9828660565937755  4.6431580733167603
 11.2594907349909157 14.2354828846995254 14.3530980224807632
  6.2408264255346992 15.8507607368370422  3.1872401601405271
  6.4896755650458973  6.3058922502570915  3.1974091667267381
 12.7469328048299584  9.4618190568994347  6.3059136386200576
  3.0682323549317618  9.4702074439176425 12.6285033801632167
 11.2103877795811044 14.2378342620320222  1.4919610975534561
 11.0975820159288538 14.2431758252181400  7.8959911184163074
  3.2019620403266984  9.4585098653908783 15.8993959136808023
  6.3463825768366204  3.0607589152633450 12.7256241722693861
  1.5556895012280070 11.1360959405515398  4.6468140616729263
  3.1510125078131277  9.5082875498856456  6.2585847180653200
  9.6105355796604144  3.1408833122184316 12.7280497266798651
  1.4623124742372755  1.5845475867299281  1.7394508886601965
  7.8650499469852431 11.1115053050111783  4.7043097252496642
  7.9873697213216293  4.6144771560998628  7.9835689995579502
  7.9861390621964299 14.2495663997401234  7.9388215763418204
  9.5770241158996079  6.3839512619179919 15.8800378151429573
 15.7316638716307970  6.4213664913793416  3.2713848224255382
 15.7741698055112014 15.8073977346180587  9.4119680673631212
  9.6423156322472714  6.3428932583247617  9.5369811800077677
  7.9368345473667379  1.5250876450491446  1.5806920771113504
  4.7022651007298020  4.7379319495507293  1.6939074131592962
  1.5334391858081922 14.2922264794472440  1.6450911042270799
  1.5707413700881467  1.5172889401454759 11.1482181546687613
  8.0032591853364643 11.1055285383412077 10.9791566302188546
  9.5163189304499731  3.2149259327564406  3.1822144996531119
 15.8144283762750213  3.1693242705589513  9.4662923932421723
 15.7570463087063235 12.7599639242180896 12.7193834415129405
 11.0574269787646813 11.1607494716098152  7.9585401681105692
 14.2215144178725641  1.5974983087074337 11.1770218289962546
  3.2120205673549060 15.7990334595040256 15.8307522496219466
  3.1390322112753868  3.1320547062671582 15.7969253769392921
 12.6997048240350665  3.2217130537271572 15.8506139040322047
  6.4211648860669452  6.3798968906699329 15.8858902588911430
 12.7355523492676976  6.3962574858448500 15.8626374363226965
 15.7287151181869742 12.6961644953156227 15.8158016568300415
  6.4476997940381082  6.3260464082943404  6.3005645187172217
 12.7596086688254093  6.3070348842368542  6.3015108406899198
 15.7936692076602654  9.4606491425767789  6.2487063268444203
 15.7733745218870833 12.8223724114762216  6.3163396592532886
  3.1460686705036176 12.7547458656262602  6.2526329254045052
 15.8129855084745756  6.3279776859538108  9.5356280899375250
  3.1589639776774932  9.5438010176531467  9.4823400097904571
  6.3027989659511139 15.8044775170711809 12.6697844462807812
  3.0519199837843898  6.3037272657390009 12.7125765013659979
 12.6588478118203973  6.3383941746926826 12.7570551901607807
  3.1427610277314297 12.7853241144881675 12.7205979637106097
  9.6139536622543851 12.7247576811282315 12.6828305622206052
  1.5361612528963751  4.7323575478461386  1.6767067974612109
  4.7799247256292370 11.0724320970508074  1.6113424994718430
  4.7009179700882635  1.5988228650412144  7.9603211186735656
 11.0866964817935472  1.6113730133888065  7.9226871199019815
 14.2575135356973224  1.5040775961454294 14.2552373660087994
  6.3385356269314483  3.1548307990937454 15.8173115897430758
  6.3207058733457222 15.9436909583583333  6.3138706533694942
 15.8107596979580407  3.1565867100771268  6.3520606079649555
  9.5984182422883144  6.3926209004121075 12.7479749092894785
 14.2678798934199893  1.5889532564812698  4.6879040453804208
  7.9475782981262819 14.2683119122362729  4.7843584314265435
  7.8978574115535922 11.0588180558473841 14.2965388898851273
 12.7326509564500991 15.8738916809925907 15.8708550272818005
 15.7812002979027852 15.8355644453594255  3.2132387514276903
 15.8232845532290138  3.2073763044377004  3.2619163208232678
 12.7103623174415841  3.1657161386645090  3.1714443480555561
  9.5118593913234513 15.8677132660174660  6.3724067218623617
  3.1223230916629090 15.8209690183637033  9.4944246893355384
  6.3634732858900147  3.1109680949206129  9.5239233482736605
  9.5577067108657410 12.7311673279919511  9.5193961889608136
  7.9316253611587442  4.7172645898573204  1.6049480731837504
 14.2599520715124655  4.6972988246982625  4.7292371296924687
  1.5867898899483930  7.9475588620536390  4.7186429411206516
 14.2160825774170334  7.9416868416417286  4.7243280739435409
 14.2281977410969791  1.6049348603740698  7.9186233210920678
 11.0872768671481499  4.7169135098133061  7.9108764327758774
 14.1845449235358778 14.2511350443829894  7.8794982044083532
  1.5088533141845175  7.9521754142213172 11.0962906924524809
 11.1218321135408438  7.9292571646653851 11.1081170346733256
 14.2242593323868967 14.2786258907960200 11.0673144073447407
 11.1423253963905005  4.8024788239473244 14.3195753851214462
 14.2473475050678342  4.7853461468987506 14.2962037480691908
 11.1190263084513017 11.1248474939263566 14.3312546662703362
  4.7556797907784700 14.2334397117967946 14.2826495945510388
 14.1579872002161817 14.2550252483321866 14.3145360696254933
  6.3754232369292740  9.4709479144987458  3.1417666395831421
  4.8135340468156409  7.9511401168625326  1.6350132659833194
 14.2628235563232728  7.9251123943078561  1.5932067322396333
 14.2095998244714341 11.0950872796333080  1.5200126748946030
  4.7110190611584617  1.6317542123951485  4.7956770947015031
 14.2555528143757027  7.8979750456201874  7.8835704936887394
  1.5105463025652273  4.7275153976125210 11.1246099167201411
  1.5110680836474519  4.7713158501801756 14.3157761717619110
  9.5801206577246880  3.1710240085238084  9.5512314141930190
 11.1439053915453812  7.9376343053451830  1.5807311566432589
  7.9596377012331772  7.9379093854255638  4.7366069683504417
  4.7099110146250238  1.5412831168948748 14.2506659063504895
  4.6934744640551775 14.2301608727755156  1.5665936235629128
  7.9791178807821472  4.7341491115253822  4.8114182620672894
 11.1438625019547146  7.9153553679614017 14.2935339597537663
  1.5370361789568447 14.2617076243633996 14.2991161768561259
 12.7424395981615550 12.6691963889510095 15.8374206989759099
  3.1382323421720866  3.1154495224392869  3.2261805592075623
  3.2065096732040308 15.9013650177599004  6.2773374651530238
  6.3818101268820753 12.7107040759398977  6.3236126643221029
 12.7450363539503346 12.7222694111800241  6.3316523354867629
  9.5537754471571255  9.4710655859294945  9.5190858317893738
 14.2578594749614762 14.3200146779699420  4.7532175085131225
  4.6966657299160879 14.3536983531189097 11.0578576854736372
 11.1018788612157220 14.2566563441652114 11.0834437426350743
  7.9883536814708851  7.9642040550398949 14.3150499718852977
 14.2383379203779157  7.9263451431643226 14.2950606717584101
  9.4863831435247850  9.4905939445696177  6.2985225760865289
  6.2995162906193363 12.7432167523915183  9.5324732183390086
 14.3050662105802591  1.6051127739882858  1.6573319843934706
 11.1926435113445475  4.7842562367015473  1.6448293244714398
 11.1415636227200441 14.2638742822199678  4.8393356136393431
  7.9708060061693775  1.5154767656704933 14.2885949089681841
 12.7966580495144324  6.3810151856519584  3.1651545894488673
 14.2546346589741919 11.1497884979260551  4.7311566206405278
  4.7513097698227185  7.9141062840596526  7.9020601706517546
 14.2252787189449332  4.7319044262784953 11.1149386761908051
 15.7983082273623623  3.2251617626558420 15.8317348276862475
  9.5889888618078416  9.4418607190835520 15.7859176169851079
  6.3569280269361323 15.8545129975467614  9.5257887553081488
  3.0597609457321640  3.2075227352096021  9.5496522824094523
 15.7899074076220494  9.4918673856197557 12.7202028985816291
  6.4078846692871894  9.4903647485641827 12.6714995772635231
  4.6994225457300267  1.6571520032967590  1.6469576289135033
  7.9377174435429216 14.2964648408521082  1.5809394237815522
  1.6434669886964022  1.5259036100472168  7.9207465308549887
  1.5288446135389033 11.1110837361369086 14.2939238149321923
  6.3033908532097920 12.7408971211820958 15.8674667389663355
 12.7471468878980616 12.7017731834827625  3.1581786978641366
  9.5601187763033302  3.2225168889550186  6.3242239783302816
  9.5839310075500102 15.7806706596346107 12.6425007585769045
 12.6839881781931307 15.7396943195686490 12.6175304137234505
  1.5220957418932801  1.5765274049564253  4.6989117928645312
  8.0320805084816342  1.6307823843247078  7.9645818250693008
  1.5542609513683550  4.7829753777311943  7.8692489300597268
 11.0248064710931413 11.0827256706042885 10.9878112014202358
  7.9804696600951317 14.2200330031213351 11.0295903482598217
  9.5757984348663214 15.8288366225791322 15.8441954879875571
 15.7253173320478332  6.3259718073003626 15.8519268742407604
 15.7057839072665928  9.5013200781031308 15.8725486644120277
  9.5319265918110947 12.6422359627940217 15.8147413606764999
  3.2225458182592734 15.8616291689498503  3.1755841811323209
 12.7316156754593681 15.8173603558045084  3.1879911509703489
  6.4168564911393027  3.1949555739021305  3.1964390954265611
  3.1307931555070576  3.1156590272451563  6.3129521321637192
  9.5277857790430787  6.2624345983448260  6.3410216943685098
 12.6291480878482059  6.3375863922333142  9.4925476035639598
  3.2362446850456767 15.7628201219520641 12.7825121831122956
 12.6536266800403983 12.6905183420198124 12.6410377822121394
 14.3126066753371664  4.7154495257983475  1.6554134025655205
  1.5024360978608724  7.9021138035061131  1.5754826882274839
  7.9154870878456567 11.0578016597518740  1.5919762814441760
 11.1741967267754720  4.7235261114146949  4.7176771361678727
  1.5566499189631033 11.1164031152360039  7.8428118470734374
  7.9707190629963875 11.1282452522716344  7.9853607826656603
 14.2246342354845261 11.0819197415690915 11.1102001886930370
  1.5019975676744945  7.9278711663409185 14.3231045356057081
