Mo Nb Ta V  W 
 1.0000000000000000
    15.8515778005355408    0.0000000000000000    0.0000000000000010
     0.0000000000000025   15.8515778005355408    0.0000000000000010
     0.0000000000000000    0.0000000000000000   15.8515778005355408
 Mo  Nb  Ta  V   W  
  50  50  50  50  50
Cartesian
  1.5778384508017806  1.6460548252354295  1.5497800023667319
 14.2721153658093112  1.6479622302898607  1.5369440932064073
  7.9630823793802676  4.7685874945465976  1.4904015712808649
  1.6090623141823348  7.9189842969662623  4.7241468958325719
  7.9198042472809345 11.1208296450980022  4.8277528815729926
 14.2661998144534241  1.5929434405593954  7.9784050024875732
 11.1055996459835722  4.8050846968080325  7.9296953008532043
  4.8042095633617867 11.1110504540679749 11.0734670891717464
  7.9660955112343634  1.6367649663445916 14.2712056559869147
  4.7430919054009548 14.2371457279019236 14.2190770550555872
  3.1742451450624523  6.2855012705804709 15.8437205742232461
 12.7119248110183438  6.3903606321919453  3.2138377701924470
 15.8471943554442678 12.5196512778475117  9.5399042224211232
  7.9560826989443489  1.6410768850940234  1.5127898186664381
 14.2542024517874886  7.9109800041114982  1.5618717078336706
  1.5635827956667374 14.2286724167840202  1.5648446758227639
  4.6840833314992141  4.8370820495444278  4.7168020415096281
  4.7675225975924489  1.5694135889960568 10.9697490108298261
  4.7594619219481054  4.7097682181381622 11.0546953839130548
  4.7669361985917433  7.9679881941371287 11.1388333359126062
 15.9256802901108436  3.2309036686607655 12.6957266206959947
 15.8916913392939474 12.6170151119332239 12.6743911694598488
  6.3070280931995422 12.6507895707509217 12.6016738776044459
  7.9417109836024959 14.2018389722064953  1.5696950283531350
  4.6855187743911264  7.8990002864567002  4.7110850749745845
  7.8482725769125716  1.5903186366350526 11.0124708723950349
 14.2377662998479124  1.5365143534780763 11.1330430640083176
 12.6332462986379230  6.3965622417617043 15.7211577232873605
 15.7625137305626684  9.5055802636756912  6.4078229636250850
 15.8461127627544300  6.2272769397767291  9.5841599406979441
  3.1057734281947491  9.5758098163326295 12.6180460116504189
  3.1167601487539658 12.5874333991645067 12.6719178246977329
  1.6248837151580033  4.8755172351600802  1.5998935193918542
  4.7158100656661253 11.0223049807389302  1.5496736461943212
  7.9436823169308139  4.8124348255712217  4.7503135917364796
 11.0420807919847537 11.0999973507773184  4.7934598473789647
  7.8879978409395415 14.2334442412071684 10.9593221974328223
  1.5794286516924823 14.2242712168836825 14.2296078474263332
 15.9568991284753974  9.5360427311691929 15.9522031264474382
  9.5340966718543978 12.6688992416611690 15.9271598383191808
 12.7561810763831804 12.7107412327152911 15.9672796334617590
 12.6675027194212682 15.7265779251244755  3.0432489700007066
  3.1258517698650388 15.9099827686860831  6.4372843461478473
  6.3322475958019000 15.8288665209907968  6.3576200465927029
  9.4479151091353604  9.3912221346706399  9.4791829755011214
  4.7808170292624492 11.1170922371188237  4.8065435854173568
  7.9273033244606257 14.1475388108651945  4.8705083201750510
 14.3048012979749259 14.2181835214096797  4.7638603725074979
 11.0904623289678952  4.7806285095289702 11.1168491824355922
  7.8784439006860536  7.9623895980572241 14.2224068197102778
 15.7839024731200706 15.8123420039171556  3.0746437869372905
  9.5653162536715524 15.8769274394807383  9.5585477999965303
  9.5699489367371484  3.1642873942283769 12.6472867267755280
  7.9304929559738859  1.5814373952692358  4.7366800075740656
 11.0724786536204984 14.1633160199662385  4.7804682245880494
  1.5454505242852126  7.9232978657921942  7.9804718670851962
 14.1795777995466494 14.2585512322585437  8.0953681921249014
 14.2736103971557000 11.0452541073515924 14.2841246657274166
 12.7010993454874210  9.4508799610687859  3.1527986307136784
 15.9401361248849742 15.9467770606232282  9.5639455927206622
  3.0954410272461628  6.2819557517154090  9.5371934290801015
 15.7906485597132562  6.2283480881174533 12.7374967514719071
  4.7154168673861072  1.5746754708422128  4.7544780619796567
 11.1437410093196920  1.5684532907458615  4.7339993498165880
  4.8106839743727319 14.2089913968866117  8.0579866852863180
  1.6780447840110879 14.2287271434753482 11.0163446681209454
  6.4140174055651382  9.5012801587439544 15.9282830980000778
  9.5085047083777923  9.3837534727382739 15.9375550798644738
 12.6998680652665819  9.3856871976911229 15.8118303196525716
  3.0734858274317385  9.4746588282521529  3.0908234200261404
 15.8758088160543185 15.9032785597186521  6.4385322840556363
 12.6911086791631504 15.8014255072902987  6.3221608232607425
 12.7274070412794771  3.2626178446384437 12.6418017972484851
 15.8357557388492491  9.6200738016487541 12.6923356928668625
 11.0182359587659686 11.1480910779641054  8.0038544549001891
  4.7388506299006448  8.0188786897530591 14.2301269289702876
 12.6971199606961029  3.2948268222096302 15.7126244835592086
  6.3791602095715128 12.6230099968912022 15.8427446569632231
  6.3687177376306741  6.3895188089463133  3.1353139949856028
 12.7069416964826782 12.7023242180813423  3.0507469715460278
 12.6650120525849612  9.4553156555748483  6.3996846546318302
  3.1535359722815914  6.2273095363538946 12.7168861425742925
 12.7026910396115902  6.3167504270961476 12.8220824995710778
  9.4886465771121227 12.6754603887218771 12.6455130593013365
  4.7517849148436531  1.5501549920123452  8.0672635161203168
  7.8283824106194562  1.5486058665847151  8.0264010601059166
 11.0583233940322092 14.1477742488026692  8.0135084031428825
  9.5579664436153173 15.8432389376054985 15.8513107032163010
  6.2800300792148489  3.2719210739476527  3.0729137686974619
 12.6462438734831775  6.3242764430867728  9.5141824388482306
  3.1175568139776835 15.9530269101809790 12.6451650549827459
 12.7362198721331090 12.5880952860389712 12.6292504729496304
 14.2853461647573514  1.5410376696278187  4.7357637600891396
  7.9054454253308677 11.2254051217549211  7.9386325197188290
  1.7227841661155234 14.2671346176955787  8.0895312874949497
  4.6950405495527319 14.2417260039330404 10.9429351867774400
 11.1205866379479072  1.6240487182199610 14.2707285191195332
  1.6300427711212875  8.0193801697245579 14.3164055641809753
  7.8972319509207054 11.0324905640381967 14.2234029870759517
  7.9688570471073659 14.2499942895355343 14.2437992509954388
 15.8597459129037350 15.8757523295641718 15.8541621343373080
  9.5567537587349563 15.7714839714516817  3.0949131889102941
 12.7575341730317362  3.2593098317555262  3.1926131354549128
  6.2956349672145349  3.2280439787695472  6.3399214411684675
 15.8726404052849031  6.3193593007678519  6.2816050491082827
  9.4676818954521771  9.4286904738025292  6.3905668500759942
 15.8250184635962476  9.6663421354291490  9.5355298960433128
  7.8716729978281643 14.1751387456432365  7.9365396521427982
 14.2176603399342518 14.2818709645677693 11.0743305837329959
  6.3374032734766601 15.8847882871294956 15.8374487022346511
  9.5829697806136327  6.3863259937292804 15.8100515651344278
 15.8620030628096202  6.3696144590474262  3.1870799402405172
  9.4924862865282140  6.4208432703224503  3.0928668502351875
  6.3303810615494980  9.4641396929675921  6.3081968427011983
  9.4677856948372909  6.4270849734007056  9.5081175516104199
  6.3664637437145943  6.3398098555993672 12.6366662996743582
 15.8857871699198547  3.2435293513286352 15.7454642839844272
  3.1373253703531989 12.6009985292006732 15.8034178375387242
  9.5042924255720393  3.2263259645320619  3.1024923849803359
 15.8304022083965599  9.4648834888681055  3.0831480944368357
  9.4138676674366302  9.4873064582229691  3.1521392793048508
 15.7974082559020701 12.6161354906089258  3.0609998047954918
  3.1715649813941202 12.6114206572470255  3.1091954378820423
 15.9200003420996872  3.1974016705326740  9.5889197071625993
  9.5253360176973949  3.1844082424121485  9.5807365957770134
 12.7022725689543794  3.1590953467944094  9.5968956617249273
  6.3909991278446237  6.3662365674316828  9.5675146447857475
 15.9444882274623279 15.9463777401857634 12.7004299891308392
  3.0809572243814074  3.1859376015114371 12.6598273142160274
  4.7713487999199087 14.2071556859122250  4.8406740748598089
 11.1727387769331745 14.2619828577642469 14.2509075946279911
  3.1489215778360689 15.8751380333915826 15.8002183384637256
  3.1698843178290992  3.2912215114431200 15.8059270505372780
  6.2792304332088857  6.2857788671573198 15.8576836710107543
 15.8358736341703850 12.6178521178404583 15.8672878655949159
  6.3771951569627934 15.8186332476930627  3.1338554411134245
  9.5336226127505483  3.2016680356398801  6.3845301707479152
  6.3552056422241305  6.3840440946861170  6.3190463447572291
 12.7340020217299230  6.3799083407863657  6.3148837043121340
 15.8076015597661392 12.5956968273335050  6.5169555512364434
  3.1676125154973085  9.5962635074522371  9.5532340877542818
  6.3375294309055876 15.8441434840641353 12.6345005925327243
  1.6014215756222505 14.2675948424410102  4.8052550155827651
 15.8579674525617822  6.3872981198171850 15.8150393807197727
  3.1418686349440730  3.2985323888479243  3.1465748665031801
 15.8803255600600295  3.2219471668283552  6.3118813943945558
  3.0671845229197578  3.2427223724237493  6.3820110086812525
  6.3465883192296610  3.2229531702893923 12.6201257748776001
  9.4975731839849971  6.3517332457816185 12.6677425949029967
  1.5608828955181244 11.0254620875023601  4.8282702135504305
  3.1455363157609195 15.9120319206217609  9.5575101910408620
  6.3984525077600551  3.2526818881126829  9.5422236338309432
  6.3295156910824861 12.6572720771514806  9.5316183555700089
  9.4932547806825038 12.6853488594983155  9.5440860676500741
  1.5903602120297289  4.8178923725583891  4.7319385497988602
 14.3071474766518101  4.8106334097836596  4.7625378544255614
 14.2845349079926400  7.9170421308486647  4.7517047742942697
 11.1231545551389654  7.9259931272357012  7.9448206141997577
  1.5994027584775172  1.6411640003049888 14.2840089839758857
 11.0765837362053166  4.7486411735883642 14.2516545637275023
 14.2900002672222612  4.8020585442587667 14.2463339527391479
  9.5886840481573685  3.2168851896382762 15.8339885433699230
 12.6428241422278766 15.9086376018800735  9.5439143209932649
  3.1809709180366634 12.5557438603880716  9.5460590488978188
  4.6894944898903415  4.8349402651718796  1.5962128040943568
  7.9236000062185612  7.9098298068033310  1.5535850572212833
 14.2438578622696372 11.0574309487009259  1.5284744863072832
  1.6128429022199420  1.5999065790910258 11.0965384956668185
  1.5742732632704255  4.7511614082600424 11.1312393953906916
  7.9314074654027165  4.7886236898452683 11.0893409250220998
 14.3025677932941129  4.7718863571678121 11.1242062299292517
  1.5933945688669782 11.1608695771701125 11.0911915820634963
  1.5725234536948385  4.7953339722808161 14.2293422906321574
  4.7383049567043827  4.7729760380726258 14.2130186211422807
  3.1391548813838153  6.3621117347270353  3.1412983535436787
  6.3277574628134587 15.8050342902321663  9.5619520540582723
  6.3651489453104908  9.4810225027429169 12.6087659127564660
 11.1111617251229582  7.9212829717802693  1.5736177715297361
  1.6168341698901383 11.0456034960835598  1.5588161073710676
 14.2918279151317229 14.2433964488603841  1.5592415975590568
  7.9125860133186885  7.9267575202928970  4.7603740985278371
  1.5893457856983570  1.6143410255138786  7.9775406803361708
  7.9151480285014326  7.9596292465715397 11.1226143255628784
  1.5704072387167534 11.0564150847405678 14.2782646289087136
  9.4801306004872554 12.6294870041602145  6.3914240744325292
 12.7024747375162779 15.8833567977964041 12.6712541374730669
 11.1032709750822924 14.2195457971843222  1.5662777307954856
  1.5422612015757804  4.7686097882181029  7.9163812186812370
 11.1860555137549298  1.5389881619404810 11.1299658647685753
 11.1000036731732781  7.9268488122187879 14.2560170112302966
  3.1235190145062184  9.5456049462677015 15.8835754225264321
  6.3525581008180119 12.6004648667761554  6.3756888646384740
 12.7103079563301584 12.6172678766448918  9.5733698324171446
  1.6279229131938051  7.8982646657667575  1.5614193123919451
  7.9229618835261970 11.0801372990857026  1.5763054104572887
  7.8800172037838303  7.9349751875223955  7.9292137116481074
  1.6157628126873793 11.0699107793258698  7.9506423599691267
 14.1740378102059985 11.1224999747530280  8.0073125317801583
 14.2485085092170429 11.1248017922307518 11.1043268664373702
 14.3026657887340534  7.9547701483783886 14.2350583364026093
 12.7065770489044656 15.8051508981855644 15.8892396320398657
 15.8442213075102156  3.2908885250462334  3.2181425814265481
  6.3345302006265749 12.6200962260581449  3.1422080576808149
  9.5223514070586948 15.8397242911854956  6.3947059229489058
  3.1939101753778156  9.5218888222101281  6.4371429741501442
 12.7277198495692314  9.5347824779080472  9.4881305383647803
 11.1372540575866612  4.7957664932767932  1.5534705220686287
  7.9109220341916924  4.7558247062901859  7.9579280646759454
  1.5288642890675066  7.9415518970087611 11.1131510597042915
 11.1201603163281142  7.9619254013538594 11.1010849947002086
 11.0889794605229479 11.0671486970658695 14.3092519952115751
 14.2552160378550372 14.2985947785842438 14.1985150062715491
  6.4144100319364439  9.4648382443409300  3.1496250306469502
  9.5077254575720573 12.5943571512614074  3.1554958260454611
 12.6836253810114883  9.4845340745225322 12.7024197221620341
  4.6769711435889558  7.9111157415477686  1.5689449299800697
 11.0656989524457554  7.9223430026388977  4.7616007255937243
 14.2870810832052442 11.0516419829893877  4.7646719706038372
  4.7635134685937084  4.7362229857306701  7.9858357387796062
  4.7219721866022804  7.9106731016477960  7.9406702399837830
 14.3161014349204709  7.9274249185049372  7.9616256077539109
  4.8377827645470832 11.1623388598336994  7.9733515603164733
  7.9151124288230683 11.0827355730907797 11.0485139944803770
  4.7599206032632706 10.9954528749107183 14.2194299775867652
  3.0093232186770242  3.1813091502569311  9.5123014861224711
  9.5202146239723877  9.4538793412884772 12.6602010947527432
  4.7160461590059182  1.6238993650278943  1.5691517174596401
 11.1364889881044764  1.6484195452421249  1.5238041761791465
 11.0986379083934743 11.0368104288902167  1.5604585310016741
 14.2859643110328136  7.9465241226951893 11.1143554832208373
  4.7441457927331658  1.6524941301975942 14.2332955285446179
  7.9670102865020915  4.7134225971056054 14.2803170065856317
 12.7172397842251996  3.2370832278925459  6.3012425267908707
  3.1489369154659634 12.6099891056183697  6.4067870208714606
  6.3699280185531348  9.4568278930538430  9.5054138569151760
  9.5769100327659054 15.8915291375016956 12.6109013604463200
  4.7611727171325722 14.2249513681687976  1.5857454895917726
  1.5871118548638439  1.5804000323373053  4.7124784585389543
 11.1481834795623271  1.5619799728111439  7.9652015028277630
 14.2936347108626158  4.7546538131477174  7.9408836576069390
 11.0601007715033575 11.1020957589490408 11.0059286695354892
 14.2424283877750639  1.5780222298614599 14.2292179448522358
  6.2059996543033664  3.2835827209687141 15.8271333341629727
  3.2019078072998783 15.8019149329926822  3.1310647125246458
  3.0793655422531709  6.2720329751671269  6.3900123029982163
  9.4956915661450640  6.4488347657284093  6.4064301391308689
 12.7243970626887144 12.6076243979741935  6.4094145915725669
 14.2663016478157019  4.8286160230798467  1.5382138621000527
 11.0794092216937798  4.8231188681035206  4.7528457100329966
 11.2236286287259102 14.2445398495213347 11.0378525823542883
