Mo Nb Ta V  W 
 1.0000000000000000
    15.8515778005355408    0.0000000000000000    0.0000000000000010
     0.0000000000000025   15.8515778005355408    0.0000000000000010
     0.0000000000000000    0.0000000000000000   15.8515778005355408
 Mo  Nb  Ta  V   W  
  50  50  50  50  50
Cartesian
  9.5826855003077149 15.7881634486044966  6.2667225780001052
  3.0522723329258383 15.8216766970156879  9.5583042582757329
  1.5505757413222585  1.6521827735154997  1.5791019596202835
  7.8857166765008584  4.7308324479653221  1.6464874893330232
 14.1960444362715137  1.5493658152456924  7.9957591741701357
  7.9460866239950443  4.7189449971250648  7.8915229578042387
 11.1092018276727149  4.7546553877014350  7.9094304234415462
  1.5395755731319469  7.9322805029762620  7.9323493176366791
  1.5353212414268935  1.6546805964505338 14.2617100861977324
 11.1050328515450509  4.7554692075238805 14.2927846190386045
  3.0558504175456243  6.3661086269398313 15.8076340648221603
 12.6679293196113161  6.2798056695082067  3.2606556185422710
 15.7989174078120129 12.5486508732153865  9.5384403272020446
  1.5721920357824941 14.2563765635900452  1.5264244105320506
 11.0901154109277851  7.9074029916554744  4.7791817595668258
 14.2809576465618964 11.1125635565807404  4.7977122051755856
  4.7436025225044620  4.7726931486018467 11.1314900118722182
  4.7300219972325310  4.7899535139607075 14.3096865667920241
 12.6352947443038754 15.7514153889743493  6.3259379524821204
  6.4174249255794615 15.8503800201715759  9.5515983544837564
 15.8594587326349092  3.2425834645688516 12.6672516956654171
  6.3538007209516776  9.5098349559708470 12.7857296354915189
 15.7949430800805324 12.5427751567310164 12.6689266867823793
 11.1301742970634496  7.9202098310567779  1.5522535745255592
  7.8617596253102837 14.2900656250267701  1.5745567602818051
 14.2239723323922824 14.2917029414582206  1.5855785628614416
  8.0210095856328518  1.5441999685942938 11.1444046681243147
 14.2258038572217966  1.5378095191050305 11.1070968073183103
  7.8947339883302163  8.0036480265837646 11.0669151868309292
  4.7903072893271617  1.5779763353290139 14.3039561712766830
  7.9635909419770252  4.7767592856207761 14.2719887617961803
  4.6930298546957490  7.9782840665820096 14.2569168788884468
  6.3423533357113602  6.4810673056048929  3.2232869660151331
  3.1950320783043162 12.6509958614765399  6.3745935873524777
  3.0704624766882658  9.5571411798725894 12.7233708773271985
  1.5646518871834332  4.8038376033575885  1.5666456619878575
  4.7871293467439697 11.0992601559006658  1.5498870009800652
 11.1247090456820317 14.3511545592868739  1.5880698088187262
 11.0220397111318444 11.1275936183478468  4.8125817246717677
  8.0353276914835856 14.2059212797778311 11.1103891546211226
  1.5564879749879785 14.2340675175812201 14.2009588433299623
 15.8960639427854105  9.4388319898470705 15.7804780761095209
  9.5441806896067423 12.6136026149568856 15.9784766681556434
  3.1434388943421667 15.8543167068723729  3.1214165906124571
  6.3991860732920429 15.8788605327202106  6.3152246639797456
  6.3845917636917333 12.6308107170961428  6.3697306252747143
  3.0762398811058844 15.9169831632877106 12.6701282345021582
  1.4741528524339711 11.1294369427495816  7.8733724251309303
  1.5177927417401189 14.2027352749225315  7.8693486857692365
 11.1334561626257642  4.7813730460482544 11.1120418579570757
  9.4461376149204188  9.3505209059096490  6.3718827360962820
  9.6321456982992455 15.7373322797634589  9.6351987122992497
  9.5161762717602354  3.1108101896210765 12.7365025930091207
  1.6457058515512586  4.7574536407747727  4.8478801532178641
  4.7597270929004099 14.2768655623060514 14.2525332592759515
  9.4842829477753750  6.4830599587148745 15.8319946673417249
  6.4431886814772534  9.4607062271318814  3.1152951463973357
 12.5943940185867316  9.5905807529058702  3.1458763743927753
  9.5613916492745457 12.6639863691436751  3.0932947947696001
 15.8368005930941393 15.9117298225976658  9.5815645211243048
 15.8484359148888263  6.2725074868459449 12.7733872189310596
  4.8493004785493179  4.7576958020372908  1.6502888468694030
 14.2239772310505312 11.0432996593513284  1.5017245614529524
  4.7850966872902090  1.6766656535847291  4.7123890969546638
 11.1886200833992113  1.4982157534087013  4.7306749895986844
  4.7545683156759138  7.9687484587556430  7.9780269540035240
  4.7048399573607531  1.5617542689937807 11.1044180865985727
  7.9747954232580405  4.7913707140194655 11.1163313246830686
  9.4717877938821928  9.4530189035695766 15.8911494852324484
 12.6955363651331599  9.4724271760668888 15.7128981148812912
  3.1278923548878899 12.6070472065098560  3.0789993589294768
 12.8246237720567375  3.1944559509708119 12.6807509372231699
 15.8026133793058179  9.6187577942921241 12.7333854376966009
  6.3064001566034715 12.6198203101332904 12.7332710277971213
 11.0667745832253086 11.1989707109869396  8.0294294520789879
  3.1783922648827434 15.8420628969869171 15.8335402167422057
 12.7724659792117112  3.1675032229521642 15.7534171744512008
  6.4576845417699875  6.4295917867727539 15.8341968614172970
 15.8357433233461293 12.5602282402944976 15.7573059595522977
  6.4436219840687485 15.9613616376022840  3.1599094599547315
 12.7032970975599948  9.4615312723307330  6.4996383633818189
 12.7662018553496086  6.3410079820936209 12.7472056651878667
  4.8342760804269673 14.2800059778987922  1.5780579158857184
  1.6124086545593714  1.6441668475742917  4.8089214792757415
  4.7008055317073607  1.6078620440420717  7.9568248485266766
  9.4059113114515309 15.9583631282052121 15.8483361766429187
  3.0153623053970313  9.5363672240093003 15.7624748089387730
  3.2342102578886007  3.2650229926386727  3.2394486240492784
  3.2035262320798013 15.8919257387079718  6.3251569091867834
  3.1900872920817975  6.3209295272160970  6.3358038612174372
  9.5203525051328928  6.4009873445216980  6.3201373091028623
 12.6889088811306472 12.6474569695851748  6.3551650940836009
  9.5542578516510570  9.5197248679490105  9.4875889446535275
 14.2136303224011300  1.5345909182562816  4.7549661164128754
  4.8213978867093878 11.1234435893203880  4.6666640729132984
  7.9595653925843681 14.1917966663183162  4.7557304646458292
 14.2761711680857548 14.2255379378235425  4.7928082155507239
  7.9839321109721171 11.0754085571507535  8.0092447484286158
 11.0832026520749416  1.5181176157068521 14.1950406577345039
  8.0268134435757563 14.3222167612584883 14.2716845922969569
 15.8066421783283388 15.8907849878919514 15.8159244576064406
 15.8626218939089050 15.8604741585767819  3.1151442997362291
  9.4882073315536193 15.8962560994863757  3.1567566822068298
 12.6787271565060973  3.2993663272512692  3.2474255509270611
  6.3237862281451900  3.1610845923213744  6.3120663951010139
 15.7695483800728713  6.3312217175585337  6.4489196354833673
  6.3710199969617278  3.1790285790210495  9.5403233409927743
 15.7525634708675835  9.5872603686985780  9.4665257637042579
  8.0301921281840567 14.1732401928328926  7.9259810652045388
 14.2241684766170913 14.2128388625038724  7.9977957082135500
 14.1955948336937059 14.2619632627829347 11.0602173746211925
 15.8505327328861139  6.3637688579531941  3.1675752639560342
  9.5310993062485885  6.3855825898063827  3.1280877959232338
  6.3702131208722035  9.4202160895539500  6.3128662378584925
  3.0653704427268984  6.2861634753179700  9.5640576244507614
  9.5463061880930660  6.4081169868294623  9.4468433056665422
  3.0537388707670723 12.5986392058748606  9.5324813263916450
  6.3395692989890859  6.4253645052222845 12.7281905380293932
  4.7808237952873149 14.2892925405241353  7.9518551763386363
  6.3791682221049770  9.5191866438314428 15.7907148923684328
  3.1064243123650366 12.5715264801509239 15.7650158876150410
  3.1922366787982392  6.4058038920385414  3.1777416557271843
 15.9068118870837942  9.4938756364230095  3.0943685788430240
  3.1138095509180910  9.5036601429907783  3.1123857399597687
  9.4825320869667333  9.5197703120038124  3.1151013340369640
 15.8646747456885109 12.6151454821329967  3.1095616587934432
 15.8305606792009659  3.2509898719565875  9.5815419373592459
  6.3558537529308685  6.3821321623329856  9.4942486846333267
 15.8547078372080215 15.9342378178490574 12.6907555715938507
  3.0767306026703922  3.2092090708047829 12.6795032721041370
  4.8152122957531125 14.2266625547426582  4.7237517272794056
 11.1054320782046485 14.2964528571525307 14.2258912122768404
  3.1347772320438443  3.2273576326412519 15.8407790674557329
  6.3753563023780631 12.6038159221695789 15.8406915216843984
 12.5966280038614329 12.7049644311690280  3.1456145356733312
  9.5842038598016046  3.1556482096086520  6.2770055452653333
 12.6850738141489909  6.2998832840816368  6.3409628102033757
  3.0675380720022472  9.5549621795474486  9.5452485586145031
  6.4341830758853771 15.8873048453568941 12.7309620444121681
  3.0915491030406530  6.3552173132941396 12.7329269742376781
  7.8533669346758961  4.7579194351898790  4.6682337172539867
  1.5798268593748546 14.1861777956762509  4.8380112247994136
  8.0299792135454293  1.5095833737943469  7.9306513354538195
 15.8739570647232178  6.3751161147845359 15.7705169677973913
 15.7738840837729519  3.2319929218576591  6.4100545930152153
 12.7601391250727900  6.3035118248192088  9.4672968771356203
  6.3614800250531056  3.1543902850397880 12.7458256173956386
  9.5525188886189500  6.4536063888099457 12.7227245244429810
 12.6610039426955385 12.5767355661462563 12.5940423048681041
  4.7194011003064249 14.2611592412223924 11.1126504386181821
  6.4067276474958703 12.6283591682764555  3.0841907435653675
  9.5964087095482977 12.6566082897534553  9.6145755870527569
  7.9385264318711179  1.6375751953188658  4.7364974451826543
 14.2790569537684906  4.7856043423239116  4.7968293652666718
 11.0733346691507215 14.2669839148873709  4.7308582102224417
 11.1627209104183329  7.9112388609066935  7.9503253369441564
  7.9521899667912717  1.5505155563023054 14.3023462099570260
 14.3006027092293824  4.7697718226656800 14.2400136334110208
 14.2259922585210017 11.0686627044075809 14.2494842448296151
  6.4148285884651113 15.8964655207574772 15.8493636676093868
 12.6509192941428630 15.8220208412482712  9.5313230201377106
  7.8904510278764217  1.5908499866315817  1.6015956778339056
  7.9441108655469437  7.9377514461904823  1.5526985599728202
  4.7899939480013085  4.7508460826381889  4.7317032279194740
 14.2475342214070189  7.9073363179514997  7.9486991905239028
  1.5640094343579931  1.6386133577585873 11.0935208138040249
  1.5256101606089383  4.7706720103818858 11.1399528693559962
 14.2832002402593972  4.7889501086301802 11.1246854432839264
  1.5126418112595537 11.0675304516182660 11.1002938468147025
  1.5462026175943342  4.7689842349078129 14.2404451257147020
  4.7221203344066121 11.0637901860265035 14.2187478362517545
  1.5414112895229188 11.0541445500330777  1.4775135645527988
 11.1205654688144051 11.0907890303308889  1.5282478038985501
  4.7424126690196129  7.9839001650797909  4.7682931628407754
  7.9207531189080509  7.8611681524370249  4.7230922603799916
  1.5095768888517476 11.0603970996552068 14.2273431879444505
 15.7537204488366989 12.6107011229472725  6.3736990521817516
  9.5633560406619953 12.6564953254723918  6.3195483449584104
  6.3449658538797822  9.4693378024707737  9.5100849781945804
  9.5631612357307922 15.8371246796127281 12.6573791273576806
 12.7308463918321113 15.8272800288654292 12.6913349380841609
  1.5533664063175252  4.7316446878209053  7.9274558328773477
 14.2650803617614876  4.7375385406297710  7.9560879871402177
 11.1236335147207157 11.0750680227320082 11.0162769952751471
 14.2607098592603396  1.6278358272877029 14.2336653584549655
 11.1111056915021642  7.9770512160854912 14.2306303361804058
 12.6897148175394019 15.8008030639011139  3.1515969366745202
  6.3489442282951591  3.1279927989655496  3.1645606503198893
  3.1533604633066035  3.2180999128539676  6.3838659295568636
 12.6578422743631105 12.6423340624647320  9.5932867384912761
  1.5694190323527584  7.9077135917949981  1.5464033173789977
  7.9282353494780429 11.1009009065638438  1.5678299039714649
 11.0479000581701818  4.7731622157621079  4.7607552060242337
  7.8738620053471635  7.9460710355989539  7.9355755175837963
 14.2082958318267849 11.1646770391541796  7.9424764721527277
 14.2250167063127630 11.1216243814482887 11.0795176271492721
 11.2005552131023354 14.2447837502363033 11.1056324207572281
  1.5182428813204893  7.9471511679117004 14.2387171112125799
  7.9770023638268084  7.9838324272305607 14.2570737936265033
 14.2900181050317610  7.9354091689164470 14.2138735248384283
 12.7538378771411125 15.8918545311337169 15.7985939471769274
 15.7911174363919411  3.2372824367063679  3.2216560547154778
  3.2429003777856722  9.5116420371179284  6.2863295634084340
 12.7463961586120718  9.5445667697666980  9.4734843392782686
  6.3407381058698942 12.6538063384890940  9.5476712686369503
 14.2402719239904982  1.6292613204691391  1.6272520167010500
 11.1177299653646404  4.7669397123059110  1.5351542905413234
  1.5568736881899750  7.9294884849298413  4.7986222779306038
 14.2504205223306659  7.9389731170477127  4.7723117156135402
  7.9226394227176318 11.1365716659413536  4.7651091425589307
  1.4784129023472177  7.9493399182431821 11.1244288583508339
 11.1920969018436374  7.9430122465792854 11.0746553590599586
  4.7666572311724202 11.0485128288601384 11.1017039635295305
 11.0910625022059595 11.0984905220012635 14.2493111988552936
 14.2063054463339462 14.2573372236736340 14.1527161350892232
  9.4561910867792243  3.0715571521677210 15.8948617953870102
 12.7180723861761642  9.5783693112936774 12.6726389668199264
  4.7346861080663460  7.9201033858950307  1.5293893874559696
 14.2459227244226234  7.9050844810241925  1.5612162471951743
  4.7119463028960018  4.7245106036857489  7.9170831721484918
  4.8010843221475490 11.0282466650607489  7.9708663451583570
  4.7203361217546105  7.9852164425152958 11.0949047278169974
  7.9381187874168484 11.0794571332258531 11.0593502637955439
  1.5186173136377243 14.2153573126101538 11.1338372558497376
 15.7930169263555058  3.2394979468811425 15.7919314394872217
  9.5344365390507839  3.1466763678327951  3.1715451859311079
 15.8523681317709038 15.8412770907922891  6.4045636564007831
  3.0451645640133207  3.2597580812253146  9.5965964816471239
  9.5870088433851706  3.1391785659517102  9.5312272930908080
 12.7467760405439048  3.2255130942290804  9.5419068240412592
  9.5732712243910765  9.4760789858206032 12.6457218588672120
  4.8045352296173025  1.6349477906947452  1.5856498469648632
 11.1635191970900571  1.5963246859501439  1.6177198656897185
  1.5890737465774605  1.6530869866365747  7.9430708845612576
 14.2885665590790669  7.9366903103093875 11.1027440930005508
 12.7215974945009158  6.3773955050451772 15.7221341438787139
 12.6893960294747199  3.2639958481754983  6.3416515175401145
  6.3015817721233169  6.3609383310911651  6.3111580463545973
 15.7505586689947101  9.4804840075477479  6.4440633742041884
 15.8010413120453439  6.2508287289930617  9.5100663395897485
  3.1152519691213540 12.5514929907143777 12.6903788537693014
  9.6478857918439545 12.6575829255404422 12.5839138935084147
 11.1305677465035675  1.5369027980406094  7.9713564683352072
 11.1130599497792293 14.1598985887810400  8.0165640568019505
 11.2054082874917782  1.5111872536229225 11.1491462483888046
  6.4253473480030143  3.1427968688295831 15.8584647824470011
 12.6789676197711962 12.6593377656452262 15.7948633295558736
 14.2433471196328956  4.7984679358065181  1.5448138555845852
  1.5477440215228546 11.1207373119335919  4.8313246948826496
  8.0178781309887359 11.1006099412982255 14.2354989880842453
