Mo Nb Ta V  W 
 1.0000000000000000
    15.8515778005355408    0.0000000000000000    0.0000000000000010
     0.0000000000000025   15.8515778005355408    0.0000000000000010
     0.0000000000000000    0.0000000000000000   15.8515778005355408
 Mo  Nb  Ta  V   W  
  50  50  50  50  50
Cartesian
  6.2747403194341098  3.2741134265142993  9.6043024468629188
 12.7490759027485243  9.4547847505817053  9.5460861792422698
  9.4619231467242741  3.1556614021996658 12.6586415412762392
  7.9351341239047564  4.8178868123556704  1.5053985460696624
  7.8978194696313171  1.5577929089072395  4.7523014081652830
  7.8169159490072229 11.2117188574248114  4.7527484696279014
 14.2364738193932450  1.4977424545727456  7.9035657763329015
 11.1071663962405758  4.8217034043291003  7.9637537993459304
  1.5691800938484934  7.9640518389161885  7.9768087431648302
 11.0606357752063573  4.8262895932147227 14.2179340317438268
 14.2390664780297964 11.0489738193115965 14.2654572930797645
  4.7753924438758668 14.3059233172879168 14.1896443826919558
 12.7439932076482645 15.7682770402817258  9.5168298837120275
  9.4810016154380286  6.4515266295234763  9.6382909641934909
  6.3428337941133490  6.4080184790733261 12.5936369029949002
  7.9530763864303848  1.5394133747750067  1.5010044268256766
  4.7393643670880286  4.7846606475100630  1.5264505588983646
  1.5802196456922160 14.2205661754018884  1.6925694921585834
  4.7273730701230763  4.7760949912422657  8.0112108015413899
  1.5779567772211538 11.0762345674694522 11.1072706195801079
  1.6222091498257787 14.2767947744981836 11.0577141000124239
  4.7609243053869745  4.7826873544711228 14.1979635790961964
  6.2741691028508031  9.4146761420753595 15.7982804389350271
 12.6874025858641062  9.3741566676761110 15.8446042473807704
 15.8775471989049421 15.7905765369350934  6.4015782282270974
  9.4873152824267084  3.1897968499325420  9.5392917716298538
  9.5325352130952972  9.3749173375486805 12.6894641307316718
  4.6901897767326446  8.0270659907131119  4.7135992672573153
  7.9041334564829784  8.0048255420451806  4.7659099535888414
 14.2746873133412393  1.5658546453556468 11.1051055759105282
  4.7942821135427538  1.5685218189670798 14.2109595117438872
  1.5872844703280033 11.0774298378848943 14.2554678017462617
 12.7973525042668097  9.4711493838714027  6.3622230781379203
 11.0988063224497129 14.3279802446966418  1.4591826043279612
  7.9073941505093108  4.7962105517171310  4.7574138622911022
 11.1817881011237876 11.1120720548139911  4.8255702679389758
 11.0924121243440474  1.4462206083735039  7.9275169892097592
  1.5369955425256057  4.7756970999441144  8.0154142466526324
  7.9112267017052034 14.2155717852937489 10.9934735099340877
  9.5240688691121971 12.6420335346623123 15.8229646359087557
  3.1523489665177604  3.1720773377748239  3.1555955413839341
  3.1650477549327145 15.8132354403889970  6.3572205004035096
 12.8171041588258241 12.7031573325075051  9.5297643864246560
 11.1274896572674376  4.7791454359449519  4.7675394289332775
  1.5972055387715640 11.1577617644767866  4.6414389572551000
  7.9050389275681932  7.9701065637198472  7.9867601322096853
  1.5452067146833308 11.0816430253111822  7.9935199118835625
  1.6933538185799437 14.3088011680070650  7.9862065158971305
 11.0070158943026772 14.1502696519037130 11.0334717427680822
  7.9630872877890368 14.2888904024282279 14.2840593963244338
 15.8974453226102312 15.7698433624703629 15.7204781517573284
  9.4656177757240787 15.8056405202331032  3.1907365296963981
 12.6682157780729145  3.1578911470808113  3.1670429499262664
 15.7659701726146899  6.4356608781372211  6.4062586691441021
 11.1249757381105567  4.8065892779617130  1.5576973065608515
 14.2669889901120222  4.7947377930926596  4.7571597239507888
 11.1484738199146509 14.2564242690433556  4.8576221151175751
  7.9511435491908067  4.8250337754904198  8.0027960596361325
  7.8940688178590888 14.1170586959906501  8.0545685588989144
 15.7868050681303984  6.4887983229181936  3.2126723821953416
 12.6551778147523866  6.5237596811461520  3.1692134770011333
  9.4589208284939463 12.7147821792555806  3.2382471811341778
  6.3141827713211125  9.7442848139650202  6.4352328882052969
 15.7488730440039451 12.7187889254315500  9.4684350999103781
 12.6656575716452693  9.3820929989850033 12.6782131277977292
  7.9875711445148134  8.0389295167856396  1.4823352849237283
 11.1542816769414053  1.5120236055653400  4.8342202345913918
  4.7405303218786567  4.7657000443945972  4.7418363384452604
  4.8013877956377602 11.0541068260693383 14.2280623961710582
  3.1672892272795057  6.4438028141153589  3.1583357995758612
  9.6051258938400768  9.4945376985488927  3.1851422971143597
 15.8603581003196634  9.3542988214914384 12.6993944812014750
 15.8184578857287441 12.8093803956275103 12.7137088816560251
  6.4334747262198633 12.7043599385634138 12.6955712036848443
 11.0472324630137084  1.4824193951564761  1.4401932811712448
  1.6549013860838733 11.0987188747956402  1.6730445674844876
 11.0701391955037565 11.0034890686767497  1.4968293612711920
 14.3486747604911997 14.2850534863248644  1.5897425261899700
  7.8506878899265846  1.4902197896554483 11.0761499528760297
  3.0923699905712341  3.1546717992824429 15.7315103445249225
  6.2898135760489646 12.7279213710380166 15.8810311342168191
 12.6593764489113259 12.6784617195964984  3.1041869071747148
  6.3184719993077376  6.3888971348226944  6.3519632907105388
  3.2457755642045245 12.5971250960386456  6.3772366737584933
  9.3822022496647115 12.6439206690723864  6.4055921117514991
 12.7243027734113738 15.7241515918102763 12.6679587637326634
 12.6884397532769846  6.4693253272985283 12.6715810109072908
  3.1556736955154348  9.3447801432266182 12.6318761830107569
  1.5848105893739575  4.7777333468247027  1.5347105160658869
  7.9170564765095328  1.4993022635866298  8.0772589059877831
 11.0520230216552697  1.5051205217303292 11.0022180529144276
 14.2052791476659799  1.4695217012791295 14.3004668464942171
 15.8187334241377950  6.3777041768606129 15.6949081362735008
  3.2229314140340493  9.4541937881174594 15.7946617325922976
  6.3194524638951108  3.2245935157074661 12.5919402261944171
 14.2896860774530534  1.4948930828211633  4.7783781194014807
  4.7446591388089230 11.2169451166956176  4.6888903265375799
 14.3328426520269741 14.3051433241161980  4.7415632908719498
 11.0505484212222598  4.8024724334814106 11.0801877622759264
 14.2811308032359943 11.0836026778120740 11.1040574157270377
  6.3562539372029185  3.1918593537437663  6.4049334902210937
  3.1296407075787633  9.5621938122595953  6.3263578083043797
  9.4898455021143899  9.5593706173272661  6.3321346102488834
  1.5347590865278482  1.5466650655662257  1.6249330679443992
  3.1796117604377110  6.3940981917290785 15.7607282023395072
  9.5334804103616921  6.4348511767602758 15.7546848418342940
  9.5449701238083104  6.4330830460844348  3.1828739578009611
 12.7026125856230205  9.4361928512030566  3.1859900378705648
 15.8396401813792504 15.8217499151392502  9.5468306303159522
  3.1642356422899289  6.4026547941308261  9.6018190169581192
 15.8154690322948568  6.3799808425882851 12.7141835351715677
  4.7333212331000736  1.5484358955488955  4.7681049046874122
  4.8082408987101077 14.2213278950367634  7.9804083565904218
  8.0101198534697460 11.1465772937920313 11.0814696014170213
  3.1836374902472118 12.7430515921565899 15.8470362887702780
  9.4739478881359762  3.1972176699398220  3.1510127532154359
 15.8399541906701984  9.4601430009087739  3.2130018737906623
 12.7137263268437479  3.1803030064122995  9.4279211880323928
  6.3254403460075892  6.3566748637410182  9.6704679630890666
 15.8861670717654615 15.8185887991914633 12.6585402766660433
 15.8935886768348382  3.1655435944721662 12.7473606261466745
  3.1382916039035011  3.1763738958389447 12.6464257678058871
 12.6561321448041983  3.1937725659406571 12.6773165867698108
  6.3602200656123058  9.3411653965277477 12.6648481467954248
 11.1600167637034069 11.0979832564990399  8.0350988888948134
  3.1952164284726274 15.7975007956644315 15.8277167604010724
 12.6753899452646728  3.1950912151073054 15.7750896765732094
  6.2927206721060154  6.4534457505920715 15.7507779155027112
 15.8752944510447644 12.6882136142166253 15.7918428870963456
  6.3522474237500424 15.7528535871625639  3.1176402417106379
  6.3156032089783789  6.4260458213153218  3.1055349138352262
  9.5171770453506142  3.1731309535168606  6.3754925635845092
 12.7217246509316251  6.4537780805218530  6.3704164966295433
 15.8190764803956476  9.5105606620101675  6.3532011756423961
 15.8419028340017274 12.6692072184729465  6.4458987821943774
  9.4573821442381121 15.7469530240417175 12.6667738131038785
  3.1573338846960324  6.3684264336426191 12.6460648463506544
  1.6024764643660325 14.2274070224444742  4.6665799101502641
  4.7359669038251582  1.4805969225442706  8.0564336838932675
 11.1283085960801191 14.2765821400095891  7.9811137720901195
  6.3826376092988566  3.1902141873815526  3.0970895013511011
 15.8476010166059194  3.1823117316013589  6.4467277651463188
  3.1043189461008218  3.1859407812463725  6.4096562163056525
  3.1081620468621169  6.4082282498721019  6.3640120688827944
  9.5522919714398142  6.4226558725362750  6.3138608410791530
 12.7458942503195978  6.4188878826592557  9.5035290879207892
  3.0794521796212315 15.8851654926407111 12.6873023359592327
  9.4393106394619988  6.4554285842040029 12.6298251732449405
  4.8214950540237389 14.3080590425590728 11.0407766200477138
  8.0470305573834686 11.0199531825987478 14.2924430884163733
 12.7002410353178004 15.8051884725145353 15.7910994251643206
 15.8701791109153962 15.8194802337973996  3.1718848734752312
  6.3507547189177416 12.7635051462397602  3.0878165174417420
  3.1535247178174322 15.8572092696434979  9.6006965283258943
  9.4614942836322449 15.7594707339977180  9.5691349592761608
  6.3488681694620723 12.6162107213160439  9.5238643074846490
  9.5125789646380738 12.6386328529392564  9.5015884924772767
  1.5870494910584512  7.9784008573254699  4.7756860911119094
 14.2642482097233643  7.9587868817440492  4.7789380277832452
 14.2383225167564049 14.3083854187799417  7.9267768841992332
  1.5609642600634048  7.9294059796858436 11.1122205212073819
 11.1065335388895807  7.9453501752479943 11.0915981421064060
 14.2719927573259966 14.2294705913135431 11.1026167158095959
  1.5907001242818859  1.5735227420809663 14.2690183001038182
 14.2412423196739422  4.7590419543501996 14.2333834452603849
 14.2554745932173130 14.2582736850947018 14.2847104050842546
  4.7266516030569710  7.9770617288039984  1.5661794900033377
 14.2649785742843189  7.9115652968478587  1.5680385013984719
 11.1141291672484410  7.9851118581570892  4.8037089369286283
 14.2762884491645767  7.9572629903264342  7.9542783486105337
  4.7871058569035458 11.1427929023356445  7.9743773673416065
  1.5692005412362700  1.5709826340850817 11.0820894873254616
  4.7162728998007593  4.7937567783741768 11.1272721538547259
  7.9214784743995468  4.7669989511467810 11.1013670013706367
  4.7428378231049075  7.9349817356480159 11.0904594563419394
  1.5740622171737961  4.7934040241613500 14.2337310419780856
  9.5929547475158561  9.4483311159297578 15.7820420688765193
  3.1411128138371676  9.4850706605070911  3.1689317200393829
 15.8401758566830875 12.6291603661289518  3.1456094085565582
  3.2229361429405179 12.7144024000305826  3.1257497080404066
 12.7361643283551498 15.7676772074318539  6.3792984975223996
  6.3533374505452258 15.7897412788692275  9.5105227430183596
 11.0863777639736192  7.9839400139760270  1.5166441320389588
  7.9159386293742449  7.9895707953053261 11.0679271516950397
 14.2548467167761483  7.9655932422641076 11.1283775051878333
  4.7152599997644913  7.9283283065797576 14.1904012453270436
  6.3597152795955720 15.8547061360905683 12.6912639714583584
  9.5318249896235105 12.7015027502114677 12.6997200823175955
  4.7766992251690832 14.2177459303049982  1.5886368270593885
 14.2815297679943125  4.8010587760644441  7.9570775089168926
 11.0872627894859459  7.9639329462996624 14.2289944325748561
  1.5840124641498357 14.2633634598612833 14.2468375261549571
  9.4783151668382555 15.8171746922253345 15.8027765962812854
  6.3466809054850435 12.6104958326503844  6.3919786492449644
  7.8561088620541755 14.1697717067940694  4.7740095099238031
  7.9562289203472956 11.1467442318276611  8.0496622662435993
 14.2863032103733580 11.0517720223748732  7.9868674573971319
  1.5767869984532052  7.9179899162815897 14.2263932100320272
  7.9800088887932645  7.9596630027116788 14.2785426171500909
 14.2353459209486513  7.9444475032593802 14.2550575127590644
 15.8394479919531790  3.1752992241331168  3.1647690263885950
  9.4315528448426615 15.7678384669142773  6.3743032107848787
 15.8241713151151817  9.4449564800151453  9.5454952167579386
 14.2861961052213360  1.5262788734579933  1.5303900242896435
  1.5423596763834357  4.7786774564980332  4.7662172880561062
 11.1202017133408582  8.0242223123974821  7.9571895761104674
  4.8211333922706370 11.1097355112792702 11.1124405783081315
  7.9075437763829930  1.5456573859527405 14.2297062542957171
 11.0742539648487934 11.0610231264949519 14.2532412866489704
  6.3048026910144239 15.8047871134765767 15.8931036439388862
  9.5021771523581062  3.1826486479168357 15.8025347902495916
  6.3140868035653179  9.5116975588872172  3.1343460914948795
  3.2228158288250790 12.6233918918813899  9.4973612713656799
 14.2922875627562487 11.0815640403191722  1.5741571604699063
 14.2859916223490178 11.1481377137538384  4.7323226504798992
  4.7675295562115796  7.9951990309388110  7.9848418703908148
  4.7728301759644838  1.4538120815106965 11.0505372314272776
  1.5301995062462790  4.7783511395089340 11.1019282748143766
 14.2815823674213220  4.7643251285856136 11.0954801804920695
 15.8718972042795183  3.1837671330638613 15.7392765647963913
 15.8456874289158378  3.1134698537733199  9.5199322788218801
  3.1382457750097950  3.1527919934253976  9.6443636446296370
  4.7226230558420053  1.5771751740746398  1.5751500898550246
  7.9394595730954229 14.2446314527996023  1.5603046273088184
  4.7816247249168207 14.1950700213800722  4.7593991785457028
  1.6348549119586520  1.5406242581011933  8.0116485122290193
  7.9085738553302818  4.7872080531208354 14.2124928632710859
 11.0738203471408649 14.2510186296732790 14.2712648726670093
 12.7034115816994735  6.4380572261475759 15.7716839835442020
 12.7303767093143687  3.1878951132892728  6.4281881172670587
 15.7680245603421643  6.4271839473854087  9.5557025377907188
  3.2085036370534237  9.4950319399428054  9.5818545066472733
  6.3641746270014821  9.5419572912645201  9.5472396700895548
  3.1784212880595955 12.7230828898405921 12.6780216599502236
  4.7006619744456213 11.1272654653809475  1.6643326070220581
  1.5330461778977906  1.5163698926605571  4.7405568978979344
 11.0575179664442196 11.1116565924766064 11.0888029043762000
  6.3452549712526816  3.1713910320756935 15.7977595522655196
 15.8411616022028880  9.4329429385668604 15.8438259974130293
 12.7325066695582123 12.6811804195831321 15.8021189576952139
  3.2376964600043316 15.7886672586634269  3.1199591974296528
 12.6701073614146136 15.8222084236117997  3.1224636198739675
  6.3930764106205507 15.7668840928055705  6.3447606328436317
 12.8312802051912840 12.6704133507586540  6.4447795940994546
  9.4917353699939078  9.5089716758128269  9.5489353210130208
 12.7065150878204793 12.7262018131548480 12.6908650763406268
 14.2600854903573708  4.8041179440873787  1.5493159212789249
  1.5941811591987007  7.9682443938965548  1.5589694219414152
  7.9436787460245357 11.0710840151071483  1.5477489955246553
 11.0569572138353429  1.4851764502529932 14.2874134895703850
