Mo Nb Ta V  W 
 1.0000000000000000
    15.8515778005355408    0.0000000000000000    0.0000000000000010
     0.0000000000000025   15.8515778005355408    0.0000000000000010
     0.0000000000000000    0.0000000000000000   15.8515778005355408
 Mo  Nb  Ta  V   W  
  50  50  50  50  50
Cartesian
 12.7199829678628173 15.7990260041906474 15.8953411798252642
 15.9097429975588565  3.3298381942058728  3.1603742849390031
  1.5723655466691393  1.6452192630788665  1.5523343289097287
 14.2386539736117239  1.6607517747397063  1.5539972856800435
  7.9902260847783424  4.7847406699652772  1.5375333441018981
  7.9555668595238291  1.5668825375419748  4.7560268886333725
  1.5463047588703851  7.9206510309058622  4.7377062105376799
  7.9604845188990083 11.1508348095532988  4.8226871347743314
 14.2559463212332123  1.6090892670526238  7.9686837568880913
 11.1109117881890800  4.7957485386033634  7.9200060927135985
  7.9531524063072982  1.6210395540309324 14.2740112768678458
  4.7185747349126617 14.2622427749475129 14.2115397963099479
  6.3510167918831177 15.8626937427790775 15.8579445736159776
  3.0445183809911951  6.2131397531333850 15.8445376036119736
 12.7868373516742349  6.4363788474456038  3.1851612921300840
 15.8152844424184984 12.5645629103098404  9.5667551310212744
  7.9524351418836332  1.6138930467411123  1.5051256435354543
  4.7226459321807814  4.7661787158608266  1.5561010038695302
  4.7122489780723127  7.9110261306964240  1.5559298893182274
  1.5701888981548304 14.2531420366752570  1.5747166260942103
  4.7301433560440760  4.7694666566942505  4.7316205380394036
 14.2940042921089656  7.9431659989314012  7.9344957484698231
  4.7602241075145058  1.5489545249282799 10.9974164299866377
  4.7459048504716881  4.6848438644868606 11.0627338514505524
  4.6825216006801496  7.9884617274746548 11.0654715495274019
 15.7765324008694332  9.4291101984253540  3.0744847990007322
 15.9203562724174770  3.2316962269258775 12.7054107341278684
  6.3744117139081018  9.4461045435405797 12.6137436057458547
  6.3180640087746083 12.6985139115492132 12.6110495146441828
  4.7324641066055948  7.8978848618310513  4.7296378313567251
 14.2390292488479986  1.5722068275843253 11.1465250102297198
 12.6788698259069061  6.4216891235075027 15.7826595980186646
 15.7434955037871500  9.4835646052840197  6.4074851535183344
  3.0705192024215009  9.5742742697799113 12.6204032740153380
  3.1006643307290096 12.5854752745793022 12.6449339276752273
  7.9768305992114055  4.8488670498928368  4.7266545547928853
 11.0507460548530343 11.0831129951005405  4.7876978467536704
 11.1399198584105310  1.5840464503129061  7.9745022134296475
  7.8748695745071666 14.2222300929396077 10.9643229996534188
  1.5834720430765543 14.2456986666987131 14.2244044471918247
 15.8313397486170402  9.4871386242818669 15.9678042806567735
  9.5958604100318645 12.7450401929860568 15.9194969630610590
 12.6605640603519749 15.7746265437963409  3.0367853307707495
  3.1905758956051549 15.9737078417051190  6.3681763483857186
  6.3202501340004860 15.9124297870449656  6.3569483602654975
  9.4798238134299915  9.3804633621414943  9.4573373512672081
  4.8127258965201509 11.1075476266998443  4.7684490038552232
  7.9382550667562759 14.2093472129583418  4.8715239408533275
  7.9046168645376360 11.2042897310655718  7.9618239916771589
 11.1109905647684624  4.7730391855935084 11.1267842929753638
 15.7787621728003344 15.8256782516117678  3.0917761777866670
  6.4239309271672322 12.7397131705698943  3.1477225952963703
  9.5716035047819812 15.8769672879349937  9.5261260000075243
  9.5698814405651031  3.1735576466579318 12.6485320053234940
 11.0802539865873708 14.1979197182324892  4.8042047664339282
  1.5865456220504315  7.9360140677791247  7.9880846013278788
 14.1714783298706184 14.2666363577747415  8.0972217182097843
 14.1754544530143480 14.3172192829440785 11.0749302931345035
 14.2962478177276129 11.0328949190160372 14.2744082859766745
 12.7140058637584641  9.3906262475458799  3.1356208762139408
 15.9369980756870309 15.9668696440069287  9.5527979323524050
  3.0780110017858329  6.2418625870400408  9.4959878481599613
 15.8073214410708491  6.2016752928156045 12.7227826606843291
 11.1445724789617167  1.5970409453907919  4.7118589983983412
  4.7101258138799391  7.9265129166349180  7.9846675170175168
  4.7808875572560341 11.1431097180784544  8.0040184471425722
  4.8068684675231825 14.2500076725961673  8.0742024320154062
  1.6793656103603067 14.2537063278079188 11.0067720446061319
  6.3854788296998315  9.4473838353576305 15.9015097042775082
  9.6130313409137091  9.3245190533965019 15.9025081655531935
  3.0762460445451083  9.4603183480019339  3.1018920910715733
 15.8961124276220840 15.9340322674539863  6.4396895217541061
 12.6726165597822256 15.8421131965789517  6.3473362050409330
 12.7106583342025701  3.2666816815914865 12.7095780289928282
 15.8371229624048180  9.6076162514307040 12.6666818948872226
 11.0248771780627184 11.1365805404166771  8.0036247865172374
  4.6787078266131532  7.9316520060821913 14.2549810782461535
  6.3711511110063261 12.7457254649555463 15.8425637366203347
 12.7260070479312652 12.6884387537678158  3.0743057373764420
 12.6510911349083894  9.4364260767902035  6.4044925738772589
  3.1818601206753949 12.6499708861417961  6.3584938019489554
 12.7048186644823744  6.3146632073657809 12.8396293088261029
  9.4954062496465106 12.7034466215810138 12.6533455306427332
  1.6020430316121790 14.3029889491405946  4.7839121573182330
  4.7670759150624251  1.5495416520453884  8.0666238300526913
  7.8303444652321312  1.5713118352510744  8.0311477046294328
 11.0574376885177870 14.1584775113402266  8.0060785638542011
  9.5063063152453235 15.8420300408722721 15.8825843601750023
 12.6541137798069272  6.3265729461500335  9.5085438394608932
 12.7563406166055664 12.6135380139944147 12.6408657811563163
  7.9339797937643883 11.0940788369282082  1.5586356234283831
 14.2766283684352508  1.6291151621736779  4.6933499290041878
  1.5419205416143111 11.0178967387739526  4.7434146441003016
 14.2553643947872430 14.2601402546153206  4.7457576274737212
  1.7238698909365526 14.3001395449517688  8.0473011148583531
  4.6985281295787056 14.2510255334053451 10.9430302147579486
 11.1087005232911356  1.6392600139115323 14.2867595313476343
  1.5265380075345365  7.9737725861885362 14.2655255336250129
  7.9543815364820967 11.0863401471333809 14.2284678920646268
  7.9561433538815338 14.2949156975163003 14.2776503743943284
 15.8375328142189282 15.8774544109152789 15.8608493440037979
  9.5036798306208095 15.7878106536369973  3.0906480773149867
  6.3044871274220791  3.1659595919082570  6.2638957911857487
 15.8539179330992841  6.3131716231207093  6.2803776809478675
  9.4769070869779561  9.4477669892993088  6.3821704677609681
 15.8014547944374542  9.6198846833637930  9.5539969258565201
  7.8613249500995668 14.1578641699580423  7.9322571931034744
  4.7189468176764402 11.0619182047779407 11.0343583154758562
  9.6023612993542820  6.3560010009254100 15.8633697104080404
 15.8229319860499373  6.3615793450355174  3.1538409522265858
  6.3993879338735278  9.4820539025160642  6.3047021640514052
  9.4786597974630808  6.4033519888491890  9.5071418270782839
  6.3393116823557554  6.3150849225019199 12.6325256276347595
  7.9409186131104894 11.0866364426809305 11.0077796841640740
 15.8587104298933159  3.2311608920293460 15.7803585033633915
 12.7085609363918977  9.3612138026669314 15.8598119033790805
  3.1288240741623521 12.6391321481966550 15.8187005203322038
  9.4816718893855256  3.2346456494002562  3.1231349973118827
  3.0818974870958891  6.3278680086803050  3.1034337020605780
  9.4539232308326895  9.4016579586716222  3.1777255995882037
 15.8206738571641523 12.5889421112976763  3.0638764517411521
  3.1513846318602097 12.6315916925972704  3.1216177876191038
 15.9172311460487155  3.1998052451565786  9.5905200215390938
  9.5147047550294754  3.1988924730168229  9.5884931638834363
 12.6956700712630308  3.1595018796561574  9.5969210307796313
  6.4012422511550628  6.3241572042349148  9.5835188765397490
 15.9405613813404159 15.9654278489903287 12.6960381460586920
  3.0815247430526691  3.1489866174086658 12.6642581302424766
  4.7927715350158513 14.2808589848991350  4.8495632940578428
 11.1701819094191563 14.3229652210145382 14.2222445717384254
  3.1269740401433550 15.8848888599212597 15.8014617797930423
  3.1238064943764923  3.2460590844394415 15.7904910326462709
  6.3222418318579852  6.2999599027301176 15.8352322626032258
 15.8583517427015792 12.6301501912387639 15.8731670079812925
  6.3764789456000361 15.8969091630709460  3.1600894993815580
  6.4182660663493785  6.3858444826382170  3.1488429124819031
  9.5174999252146542  3.2047024754586806  6.3460939281646702
  6.3820970903928114  6.3698318830506651  6.3119874041709325
 12.7144707749274524  6.3810271204623028  6.3010617466089176
 15.7981586321804013 12.6089189984275425  6.4539530353256174
  6.3256543544902746 15.8339645492320376 12.6586492139004108
  3.1531113987585710  6.2498580219578104 12.6859910517134242
 15.8303663753663297  6.3673551435060451 15.8743514794543490
 12.7445408748797426 12.7119565012206053 15.9461240374057844
  3.1451922508662076  3.2208416057877511  3.1678262971985900
  6.3244601423633133  3.1575617512679299  3.1687278826131311
 15.8802244381144639  3.2280919314369760  6.3313956547086461
  3.1234378779008085  3.2047052057972301  6.3461156804929404
  6.3324888117753533  3.2107335407090272 12.6534528245234537
  9.5187935172377429  6.3192899100118041 12.6726894535833008
  3.1261617784235192 15.9268090554937789  9.5428647793898538
  6.4156974188333740  3.2336415485250853  9.5663443892866695
  6.3000344826865469 12.6521294770394910  9.5085832657711542
  9.5119702117231792 12.7028057669921708  9.5303980069430807
  1.5617486946269887  4.7779070083514972  4.7420302058401589
 14.2883484019093299  4.8050670771113237  4.7419808012442806
 14.2926144241461888  7.9057609009875920  4.7599655363536462
 11.1145655229582463  7.9370476626161626  7.9519150240280068
  1.5777782105386893  1.6289037858504638 14.2834587634177570
 11.1004666965263521  4.7429748879759046 14.3022405315288896
 14.2840836534288336  4.8111354732054394 14.2686485668485190
  9.5615164846738239  3.2269994104661164 15.8541812448965160
  9.4823044042438074  6.3892714839120748  3.0518234352401792
 12.6425213710212834 15.9325615293135456  9.5543817234655286
  3.1767428722742030 12.6341306577860646  9.5345961339099929
  7.9738295654844915  7.8699409724431453  1.5757667337152799
 14.2767852966556212  7.9105762982432406  1.5889017305587489
 14.2551982836920157 11.0297467332113079  1.5389039132364424
  4.7325917837759546  1.5872650179645005  4.7421033111777220
  1.6095908704215851  1.5956043461061284 11.0866342348850946
  1.5840863467296855  4.7312281018843532 11.1297219447072955
  7.9250878871940902  4.7920534702409743 11.1048391168347820
 14.2856117145582679  4.7610019748415802 11.1417679282615918
  1.6382686527014256 11.1063871475045897 11.0622745235551623
  1.5391661699008756  4.7627344261095388 14.2428629558578397
  4.7336942587504236  4.7425459664697032 14.2354164986693839
  6.3431478252423696 15.8251317862309584  9.5665992866191321
 11.1256184172286900  7.8590220532538586  1.6139530682278771
  1.5571913754529247 11.0449021475442635  1.5774544900397713
  7.9358618682200799 14.2832690995300489  1.5622024385980471
 14.2853161228663570 14.2610813681378499  1.5948954545851100
  7.9679946657293375  7.8789946547698007  4.7654079267898766
  1.6061126854409680  1.6220229664076611  7.9690704343775360
  7.9565012505072827  7.9269736020053854 11.0952117105932135
  1.5294674033609967 11.0792898265527473 14.2718220621322960
  9.4999089833980275 12.6351622712639173  6.3873127109993888
  3.0989081583938258  9.4969470919319150  9.5544743162185775
 12.7061811182451425 15.9230420818311806 12.6503216879674820
  1.5350470843199111  4.7764848453740303  1.5710072165240752
 11.1126526547190139 14.2664600909942259  1.5550820353360439
  1.5400366710221134  4.7456091758553187  7.9109455709116654
 11.1726657910941825  1.5559495123654352 11.1202610130949999
 11.1178765827123236  7.8921589101347900 14.2636350529012397
  6.3588912388788303 12.6063635551372997  6.3392685169962020
 12.7150718744680535 12.6132096217226071  9.5666416374732091
  1.5593565784969470  7.9187825326822665  1.5433557253200276
  7.8886822822795883  7.9095093302218187  7.9230384315348239
 14.1735318402522896 11.1108023583316093  8.0099949876606278
 14.2500026149632824 11.1101712567207951 11.1143656050724697
 14.3031751771441087  7.9234454795175839 14.2555077344528005
 12.6914876553861866  3.2755506991817152  3.1807419541112401
  9.5134300498550921 15.8411367264829366  6.4057608574993319
  3.2216246842874829  9.5068778780390382  6.3463813534266160
 12.7165756809259030  9.5356625985028369  9.4967283494327841
 11.1360515353705072  4.7884639230017330  1.5926467972354128
  7.9016633749093437  4.7217226351961354  7.9423987482024607
  1.5473446761324068  7.9203081523987233 11.0766572415121853
 11.1338772812021620  7.9508340059304228 11.1133562940942863
 11.1274365957329842 11.0786682058546582 14.3095195529819694
 14.2687256966033953 14.2958912341378426 14.2026828229078816
  6.4517333234722596  9.4170411234075164  3.1891320219845376
  9.5167297143124774 12.7217650994983611  3.1463648722336108
 12.6809767522879255  9.4710307171166424 12.7259917972934904
 11.0381810503088591  7.8545404858829118  4.7209908159796994
 14.2671843198734933 11.0276095973105548  4.7581723584355711
  4.7861777482141603  4.7049867720849070  7.9654922500973280
  4.7628195670080942 11.0723555339935977 14.2250441726377979
  3.0233503587004629  3.1633908322724555  9.5088187790146517
  9.5351625710111332  9.4575378581195118 12.6724722515137032
 15.8748780257432127 12.6286102490299861 12.6550337098642043
  4.7405485201694688  1.6142678502073740  1.5395800868063618
 11.1173123731039531  1.6720459684740330  1.5298195585664733
 11.1066900214058624 11.0254819489366795  1.5926063111059254
  7.8593818528241712  1.5775427678363378 11.0418136393512540
 14.2715931552612467  7.9257499036431831 11.1251363199953719
  4.7423253287950722  1.6202007580915398 14.2543179639603910
  7.9822523155743745  4.7166451422002202 14.2881401034798952
 12.7340986859051348  3.2655245236553325 15.7556218236672603
 12.7212529869486186  3.2725078539922539  6.2819960995271726
 15.8498780262918455  6.2339263511140368  9.5750905251569804
  6.4100220602386795  9.4281696678432141  9.5018363424648165
  9.5726465504619949 15.9129905977594337 12.6102119154809529
  4.7756634242511025 11.0577982918145921  1.5915822237246888
  4.7381899998288350 14.2993354068147660  1.5892806919866918
  1.5645459854941663  1.6032688421154631  4.7259589373393167
 14.2816757695523098  4.7556060545414462  7.9388016591806032
 11.0608880702863104 11.1042645894913772 11.0305219598743953
 14.2331166149586643  1.5889178551900653 14.2495304628215766
  6.2820706884342501  3.2480768056741964 15.7993455250637602
  3.0821355570692841  9.5872805010447912 15.8680669847141544
  3.2502931356639810 15.8982652758073293  3.1832605849996769
  3.0907029333750304  6.2407642681120015  6.3674266827614634
  9.4941168533016871  6.4324235283069662  6.4325398437534380
 12.7189743340693848 12.5896000944575128  6.4051019311108321
  3.1220584898618311 15.9536310067059102 12.6671495469290907
 14.2445283865783967  4.7998259496620310  1.5465278172808827
 11.0502524822113397  4.8523475844886166  4.7039781903710702
  1.6533558424458679 11.0554823379924887  7.9960936585557221
 11.2130653200579431 14.2553604253020136 11.0364609262330653
  7.9329171604355633  7.9108487958214662 14.2401880074746021
