Mo Nb Ta V  W 
 1.0000000000000000
    15.8515778005355408    0.0000000000000000    0.0000000000000010
     0.0000000000000025   15.8515778005355408    0.0000000000000010
     0.0000000000000000    0.0000000000000000   15.8515778005355408
 Mo  Nb  Ta  V   W  
  50  50  50  50  50
Cartesian
 15.8093208767139171 15.8078022732750672 15.8691869638532168
  8.0004051069202831  1.5847805730515852  4.8146020112767767
  4.7644441473456816 11.1624526601105636 11.0566772131885376
 11.1206918246254904  7.9081772523879428  4.8118466051669815
 15.8182313652418962  3.1976468849946338 15.7591199200474961
  9.5293511488190212  9.5334564721610473 15.8939906731739065
 12.7000335538030313  9.6558392349154527 15.7899386278295069
  3.1589622894660581 12.7535399014901714 15.8087274114979213
  9.5162273836536624  3.2783237628037623  3.1714899159198389
  3.1131784049217215  6.3681843182164801  3.2021666286471326
 15.8098815683404510  9.4731328146886060  3.3321450712126257
  3.1095541973272383  9.4668589919282962  3.2779081151277865
  9.4986038512897508  9.4755572990255761  3.1299976400125189
  3.1609847001950184 12.6793213166305403  3.2282599927960156
 15.8048981092652703 15.7995183558427303  6.4659227989813335
 12.6788520986306672 15.8168079618047699  6.3739734339096241
  9.5060409100862042  3.2263909186508477  9.4539526089705888
 12.6733642924977552  3.0927762228448445  9.4158279747364109
 15.8095364948404491  3.1649976011864402 12.7098785307970221
 12.6438478900475051  3.1764276860207565 12.7817213819646458
  6.3231020864739556  9.4960971660229507 12.6353795791596841
  9.6143801957436388  9.5371447019985425 12.6326745082686749
 15.8262210050594465 12.7019589726254871 12.5955290483138320
  6.2888047291450953 12.7756683226473378 12.6443345531193660
  4.7438012771848737  1.5561414408222767  1.6500899098008548
 11.1303784974494206  1.5469348470784794  1.5684337347128907
 11.1153989509148126  7.9655780253034338  1.5928941646704997
 11.1673974307757771 11.1756973782483140  1.5607391609905286
  7.9015643205667603 14.2375685985611753  1.6047223984604038
 14.2565043244049061 14.2513796515964728  1.5914244397736528
  4.6392056863786149  7.9744645745870395  4.8233809644297283
  8.0166897656031395  7.9377626431819808  4.7947402436012405
  4.7991921948312184 14.2449489119315764  4.7390697455507853
  1.5958757085048918  1.4778762893633945  7.9598612042523396
  7.9579922110685004  1.5993247446573937 10.9906524702507777
 14.1748200554282882  1.4478282560761486 11.1148427018746183
  7.9586175027827952  7.9512234977734906 11.0997345835277219
 14.2582682653409876  7.9617665467491552 11.1395807050098448
  4.7680536578734234  1.5367054698575968 14.2499878546600112
  7.9384944723128807  4.8174018343798899 14.2479673636769473
  4.8188948385804595  7.9046872699139676 14.2418418969984817
  9.4823749510126394 12.7869557816138570  6.3681340626694682
  1.4815151962847306 14.3129618820410194  4.6753258247095717
 14.1595184580073639  4.8094727767020640  7.8795317953091280
  3.1598995031821935  9.5073063111237754 15.8380605448450869
  3.2481485744195933  3.1281779341890137  3.1782989029344524
  3.0466713242975758  6.4358709968461625  6.3646471302325178
  6.3689564120252005 12.7134119190864467  6.4317172389640547
 14.2569150460259362  7.9592553801412951 14.2882804249865476
  7.9486527142147461 14.2387476032643505 14.2554348850724875
  9.5827484491706532 15.7782620756391161  3.2484594549453125
 15.8405232358703891  6.4224098001003807  6.2726771353746908
 15.9774054840238229  9.4790015025242038  9.5628333240531269
  1.5250216422991520  4.6847849924009264  4.7317366927167184
 11.0613466933835269  7.9722804407313550  7.8940241793684329
  1.5051569810051015  1.4870985259218832 14.1867128510320573
  6.3058333452636104 15.8171126756150517 15.8186573410413480
  9.6043862855417306  3.2972674958814401 15.8903563288930396
  3.1761581736377908  6.2549069882203128 15.8434216222202924
  9.4450447064032925  6.2908321197113297  3.1122356366956061
  6.3660798809700658  9.4497336761971464  3.1821193321803962
 12.7742089245663166  9.5263006731470945  3.2448005682562426
  9.5579991253478731 12.7590426313440126  3.2014413075687842
  6.3867258481041169  9.4721223318501639  6.3835208838689148
 15.7417736497477581 15.6932803453987191  9.4831921662016043
  3.0600016439788447  6.3993275439958079  9.5416778629650683
 15.8866554603243113 12.8479068169086563  9.5266967659985617
  3.0266072500850285 12.8067889976342375  9.5540772832900824
 15.8354577941222896  6.2893634343824356 12.7377203843697959
 12.6653728816522655  9.6271378467720279 12.7311963200155844
  4.7091099335299385  7.9083366402047890  1.6325186495678425
 14.2703207019108067  7.9675083894602627  1.5891180637569007
 14.2601666519499961 11.1855957982261653  1.6034900668727521
 11.0155185850025426  1.5108349348007666  4.8610652920219968
  4.7338544856861597  4.7626352740275752  4.7594323632465825
  4.7996405062114267  4.6771112328612654  7.9529418335564177
 14.2404543833042467  7.8782940514301210  7.8682975623444644
  4.7065763860330891 11.0429040538278862  7.8671093695299490
  4.6972058496174185 14.3271036150390234  7.9712519363357934
  4.7659396943585213  1.5424358936435145 10.9689536013389120
  1.4961008527381063  4.6958573761448887 11.1235324891546821
  4.8743366205168970  4.7217061831219613 11.0437501212195599
  7.8711794151191423  4.7341970056264415 11.0571474696162220
  4.8090626995229657  7.8538549724763236 11.1016200451078717
  4.8114503543249292  4.7941303414217069 14.2895222055793294
  4.7391011432091590 11.1118267620464444 14.2571167452747218
  6.3807126287160081  9.4523164090586764 15.9301939621770341
  1.5323798053493327 11.1317831105944620  1.6490274189950116
 11.2922431396981686 14.3031505050448668 14.2896172598799254
  6.3251511745263453 15.8877614730330521  3.2693778885413325
  6.4206744124360933  6.2812737892020740  3.1838057539317717
  6.3673969556190313  9.4697044912516226  9.4565849003164644
  9.5455285094160729 15.8607771017334951 12.6452601660691517
  3.0804440348833539  9.5118654028429468 12.5695351878827370
  8.0776904487952983 14.2409889252967190 11.0029865626811905
 11.1169155076154276  8.0129627878512792 14.2779095955081061
  1.5080507279104467 14.2866283559621206 14.1581822427833934
  6.3547647044212390  3.2551503920358038 15.9806231242645804
 15.7331309666957697  3.1562000607208134  6.3583266376242831
 12.5863630842248089  6.3717782670424805  9.5164138071251596
 12.6450459776264754  3.2254518229579547  3.1557132148366387
  9.5799730979756141  3.1650933379701987 12.7354167701883334
  1.4800788125335178  1.5808742393227078  1.6692732619648554
  7.9317764112732716 11.1218270860395805  4.7954719524226812
  9.5447023279058367  6.3156541636980297 15.9433619860860105
 15.7853914263201123  6.4086499081400046  3.2834524447221751
  9.4995955094035551  6.3452862354513666  9.4717484586862053
  7.9818890420451298  1.6063058466448803  1.6486060525778816
  1.4910685563072936 14.2495628433767934  1.6898024294837968
  1.5394603230466810  1.4400113710627847 11.0888402861450022
  7.9699730607316930 11.1138226816952539 11.0129549323349192
 15.6900266352861060  3.0737446711763008  9.4316567550843011
  3.1630191241605603  3.1569740514632163 12.7033918780256823
 11.0202923500673720 11.1263994509025501  7.9393762047990286
  3.1715558768800181 15.8067295277863682 15.8177772946377200
  3.1745465285560628  3.1378941507103320 15.8416875802994959
 12.6794466044569187  3.2132955808125456 15.8382899371218997
  6.4222057918651432  6.3026212589331774 15.9935439973997724
 12.6942433564740398  6.2715206670348822 15.8586272518877518
 15.7627806855260584 12.6595560185584599 15.7739285720617275
 12.6522932510150774  3.2170760683815169  6.3847802318368956
  6.4318303404214809  6.3359567038479865  6.3577235015004732
 15.8657794114619755  9.5014075965893827  6.2785430495263004
 12.7582546918639750  9.5133239015867570  6.2841062407158690
 15.8327496007622077 12.7299392131191595  6.3506510885608538
  3.1158210674391613 12.7482708839889280  6.3209725657796660
 15.8393850747645288  6.3519116141924519  9.5187617728269114
  3.0864819184816699  9.5033251573550306  9.5297335634017042
  6.3403431085500719 15.7765789694511849 12.6647066405446171
  3.1176814270964082  6.3424939473688289 12.7270924323979564
 12.6802974547000886  6.3002890287729629 12.6991233824695158
  3.1798837047548942 12.7561425170567340 12.5759571638197123
  9.6441814259969387 12.6876933107494043 12.7227990720164321
  1.5419000202843225  4.7056600116449454  1.6317209401371495
  4.7419189058849476 11.1331850435242590  1.6304725672648204
  4.7729567705700955 14.2089610612284627  1.6530025389289120
 11.2219324965116520 14.2294086978453365  1.4848701927540073
  1.5164278855227213  1.5557398640086635  4.7231304885594856
 11.0316878336673856 11.0859355157030617  4.8208248509175062
  4.7890411082471926  1.5661317744631726  7.9465658415888596
 11.0133637333313867  1.5015215194172142  7.9315913036551065
 11.0653997839436755 14.3077398308348727  7.9290779390113579
 11.1648852626944954  1.4853777800601582 11.0072004381760884
 11.0869399508670519 11.1115332555986104 10.9582474434271298
 14.2618044247542031  1.4729748031167946 14.1972306716206891
  9.4735526495549216  6.3052136305833493  6.3844048590265805
  9.5945462163004667  6.3472572233892555 12.6354391236741339
 14.2938727158835537  1.5161257390092333  4.7311520626294232
  7.9257195192201593  7.9311234562089021 14.2202054807218428
  7.9392415432308985 11.0719209543543506 14.2435910522677176
 12.7488485078695497 15.8622680119487907 15.8758872984639421
 15.7873177845031716 15.8518975461300702  3.1516515276536814
 15.7607800065456090  3.1888936120694624  3.2062998171085435
  6.3642892412930028 12.6682464129234731  3.2126521239258539
  9.4789737949423039 15.7761503932699014  6.3482579699983734
  3.0815335866796869  9.5346909540870506  6.3562311796673718
  9.5050590014585925  9.4735339788081117  6.3647708716022455
  3.1145680069103285 15.7417040577771132  9.5053422863910502
  9.4962432387837747 15.8263531370340456  9.4561969239601442
  6.4099616946211544  3.1337431490153542  9.4418809035923328
  9.5365186883295294 12.7374563085598940  9.4867319553241458
  7.9787044651636698  4.7033615740837931  1.6638344155808316
 11.1204319203559923  4.7665529558711555  1.5954663745442352
 14.2421186946137919  4.7272732978871757  4.7873781692781430
  1.6151965287869505  7.9392913967804830  4.8145488507979328
 14.2356164846403068  7.9146154834066982  4.7787089824371050
 11.1569525795373643 14.2570759037378103  4.7961372650454424
 14.1525883722274628  1.4876712333750182  7.9122678292890836
  7.8884164403013139  4.7007286355222906  7.9580494702654514
 11.0934377983053647  4.7730057892093951  7.9091711580569504
  1.5631030712317104  7.9591716958104062  7.8967985415428386
  8.0238386095219063 14.3182172371235765  7.9466560827590449
 14.2030653521948231 14.3075314717195887  7.9093951553688555
  1.5459365808681060  7.9236009420890010 11.1448161860486703
 11.0943783143825279  8.0156172853070711 11.0650293536226112
 14.2281977728821332 14.3335666853503483 11.0751362372559239
 11.1173711975652285  4.7991157441557162 14.3150342173882343
 14.2533500730571348  4.7030258860780778 14.2503841067300883
 11.1538994950240138 11.1504571378972361 14.3087557788452067
 14.2292524285089570 11.1621304498314498 14.2305962757682050
  4.7579503617314822 14.2269218133578352 14.2676157288287992
 12.7445952446755850 15.8266369889130818  9.4577719603571122
  6.3789685232448532  6.3267017799846270 12.6838892624438309
  4.7155901821467223  4.7525799359489405  1.6439577099351119
  7.9756203166232282  7.9342493383716883  1.5974874599479145
  4.7439830510170840  1.5963060438844445  4.8364683079263289
 14.2583868022073723 11.1679086171349216  4.7557044509678743
  1.5542899947974762 11.1408504289894505 11.1101982066756939
  1.5404922831543995 14.3212515631581372 11.1109632649767551
  1.5533076022031036  4.7227354209260293 14.2867372398930588
 15.8032440133305450 12.6626629459007241  3.2079406618965716
 15.7406599198725470 15.7507394370733014 12.5675452912416894
 12.6783787502443079  6.3053769630072436  6.3084584803011783
 12.7196716583051153 15.8063918953245199 12.6107986384024713
  7.9320916463058264  4.7511164041015226  4.7657880761283637
 12.7687240561521005 12.6884901900561946 15.7693002819523382
  9.5028605318204740  9.4354343326254675  9.4970503530034875
  8.0286423124094242  8.0019834463970021  7.8997868346197251
  1.5826131769435876 14.3350860914215037  7.9362383017690776
  4.7891240417673346 14.3038289812815194 10.9832085600576477
  6.4077515014461337  3.1863540504610040  6.2939736342410404
 12.6679448518060642  9.4965960484500940  9.4955636706022446
  6.3613110624365525 12.7266863926424634  9.4561922799303275
 14.2959338247211978  1.5952442024247078  1.6232175153687931
  7.9579960927718609  1.5829537897214359 14.3270734076875463
 14.2019602313937039 14.3327836477111479 14.2157554439325224
 12.7389233542910087  6.3005902054132807  3.1780380621664146
  4.6917307560828716  7.9169432078716904  7.9023215614752091
 14.2227627180344580  4.7042353195798947 11.1082007607805817
  6.4394268540995867 15.8026439587092575  9.4870109898609520
  3.1147921689065332  3.1343024589261668  9.5234257790212702
  6.4682358755297438  6.3700012694388120  9.3437859526737821
 15.8713765909394890  9.5774359422385942 12.6537842887369703
  1.6178230374937179 11.1471353171220784 14.2161026023152033
  6.3475235184441932 12.6936791733392251 15.8317886777008265
 12.6660692218852677 12.6831492834399029  3.2728452255370803
  9.5083437901682615  3.3148344880959724  6.3760878684504725
  7.9949528486013808  1.5792260135795733  7.9028991141805136
  1.5591186850978935  4.7186975137686407  7.9075337210147714
  9.5546341111238284 15.8321814115971033 15.8514469442956933
 15.8223244239752070  6.2817601859882402 15.8020935536241147
 15.8078576713059409  9.6299451541802235 15.7994413138910126
  9.5712984642875210 12.6569205120063142 15.7932735691052972
  3.1783233056082962 15.8648049560411053  3.2180005150878461
 12.6670103322189380 15.8320967707873912  3.1864253665350142
  6.3582375281347234  3.2319908128301265  3.2055102812568141
  3.1481869015635593 15.8373184074586018  6.3056242855462230
  6.3645545101080776 15.8604959810689685  6.3360303295934290
  3.1631103859429777  3.0934360064208950  6.3317990917335942
 12.7566357713780238 12.6991709741325316  6.3454740327304258
 12.7724925402155058 12.7958995917892437  9.4633535056985885
  3.2688529469062400 15.7207222547681233 12.6108277217923579
  6.3593974067971226  3.1077101082332104 12.6870395500581097
 12.7029224726311778 12.6736377049330660 12.6243777361963261
 14.3263462351724051  4.7320402590477819  1.6146711804003946
  1.5369222761048651  7.9220225202711356  1.5641851151081212
  7.9126188336240135 11.1351298723916621  1.6257496108812106
 11.0957071385148094  4.8079348501076522  4.7824588891923208
  1.5715387891942574 11.1039328142032936  4.7431905134595995
  4.7824338531194561 11.1127908689733221  4.8012357943037030
  7.8998236445584400 14.2465961625802855  4.8050030679806044
 14.3270035491171921 14.3047655659878430  4.7205367852896520
  1.6017084465694200 11.0995998096247988  7.8936721885549517
  8.0590226082900838 11.0819037605859414  7.9849134031791253
 14.2921357137436686 11.1122672076570623  7.9452533881497249
 11.1069307131457524  4.7018545851244342 11.0594912295824432
 14.2654977222598003 11.1360306511329537 11.0580903730785742
 11.1448567268694312 14.3341359441871408 10.9769515116810830
 11.2169168530353893  1.5111213307899511 14.2630555815643554
  1.5475867670978041  7.9486003314879854 14.2926748986009642
