Mo Nb Ta V  W 
 1.0000000000000000
    15.8515778005355408    0.0000000000000000    0.0000000000000010
     0.0000000000000025   15.8515778005355408    0.0000000000000010
     0.0000000000000000    0.0000000000000000   15.8515778005355408
 Mo  Nb  Ta  V   W  
  50  50  50  50  50
Cartesian
 15.9338771222853968 15.7542764340583421 15.7069433292532548
 15.7400867677781289  6.4459941430168843  6.4073394856484569
  9.5172052410568924  9.5148937226118271  6.3323503735681914
  6.2942317763079059  3.2824502612279978  9.5914079211001138
  6.3560771546137644 12.5649482423811616  9.3993724556523350
  7.8264019711333397  1.5363675041779610  4.8003934354051845
  1.5353649665323992  4.7688262962585233  4.7875805497529322
  7.8649731615952918 11.1805845020296761  4.7690106534405148
 14.2710426611667156  1.5453247849969372  7.9489362707986819
 11.0454368869716717  4.7292458460810227  7.9905978431711340
  1.5490141952470169  7.9320472973867755  7.9867922195706837
 11.0762226634261953  4.8275741693171783 14.2553866381526575
 14.2502551277594307 11.0660818104036700 14.2493704475841056
  4.7380492251279449 14.2382689459048066 14.2330940320545878
 12.7720994880278713 15.7670507886882501  9.5331425804734806
  9.4919927485281796  6.4189695677553100  9.6122358931116985
  6.3032551234958420  6.4194187250938004 12.6154693998275800
  7.9328939273430494  1.5579210021916721  1.5171721320323364
  4.6797622334613660  7.9866655058802545  1.5713491777197712
 14.2811873680431329  7.9258583956888851  1.5635675148899826
  4.7457157898616629  4.7574802861802157  7.9889050307841627
  1.6511244167375569 14.2315059671201727 11.0926083393505905
  4.6898828121894383  4.8224082294035382 14.2700864633469120
  6.3295902071250243  9.4528075733538248 15.7488669289159589
 12.6707930907611939  9.4252329867970701 15.7980365419871713
 15.8745215273541262 15.7854824760861927  6.3833631116968341
  9.5219570959966084  9.3478258679010739 12.6811930925207559
  4.7178831069722866  8.0025126264025683  4.7433140270782745
  7.9487027921831173  8.0060310376789019  4.7770538601707591
  4.7351333252949992  1.5996852444890484 14.2495004045380629
  1.6227178871705761 11.1349947305726413 14.2015324331344903
 12.6718535158889978  3.1516190449049857 15.8485026888285425
 12.8154156409784505  9.4702285314734684  6.3833420986329648
  7.9265865569498528  4.7787839286938523  4.7905691474873811
 11.1438481781859373 11.0817312242824109  4.8267954404670004
  1.5194817750713765  4.7952723576760583  7.9953288377215337
  7.9674204280294667 14.2743058538117520 10.9385837894133360
  9.5333434435886915 12.6420312845340312 15.8455615826665532
  3.2323523363581179 15.7661563782159035  3.1144193821341992
  3.1552810913848548  3.1487381525423608  3.1680273836969435
  3.1684771944855283 15.8164973576625947  6.3489651202182333
 12.8110757032484273 12.6786179204246139  9.4966892185041392
 11.1284632179222598  4.7762798200740466  4.7905185049854886
  1.6017203820544370 11.1587858865863723  4.6374041801918828
  7.9360855701565818  7.9097364130256809  7.9727007853036218
  1.5617296198204578 11.0625544131689022  7.9769169803895261
  1.6741680674211576 14.2995126629987457  7.9646445672461255
  4.7445621203604027 14.3009619719085990 11.0107796385329753
 11.0652951254280083 14.2188150286472759 10.9657845017316724
  7.9718609640571225 14.3060678884220280 14.3339168660617062
  9.4514187787489448 15.8281389520727771  3.1850605084916839
 12.6714035148016855  3.1659831728287799  3.1849547457394971
  6.3312124210638254  3.1685877869454253  6.3815739726066916
  3.1186333390588161  9.5226288686846488  6.2792024737703631
  9.4304458318003199  3.2101542238032010 12.6102607225362586
 11.1262166077059668  4.7988125321044075  1.5855679814138115
 14.2477665400403080  4.7857386558335415  4.7719473708416533
 11.1264397029771978 14.2303680704441682  4.7210870965333793
  7.8728304437534185 14.2503710825352368  7.9436043306227369
 15.8395394238834690  6.4522936146149021  3.2728498305773503
 12.6146511032634390  6.5014357427997957  3.2367068149036426
  9.4641863108060296 12.7152928677635231  3.2319783219392848
  6.3543977030283187  9.6955279262443597  6.4417332175507775
 15.7561447800047745 12.7150019707706736  9.4468300141358590
 12.6924443483935772  9.3663063564247047 12.6497073230597081
  7.9962782047292889  8.0250194204237868  1.4921952737919004
  4.7361583578490292  4.7390003081874195  4.7579480037248345
  3.1273300348560205  6.3806795215925236  3.2400816759966218
 15.8779962070083602  9.4423314051734906  3.2722957589261172
 15.8396544210541279  9.3488330100999093 12.7172273911676630
 15.8045183290073705 12.8205180436549675 12.7133784062924828
  6.3913823086639345 12.7650039376657674 12.6440546388159269
 11.1191174277444347  1.4667884621036840  1.5351611338856612
  1.6176772494792753 11.1171404406322427  1.6866490136432009
 11.0775829755972328 11.0159127153302556  1.4942452884849893
 14.2719631421683122 14.3631726046524424  1.6245027972872781
  7.9237491062410230  1.5975692281155089 10.9691981372824898
  3.0612903420697095  3.1516682672869809 15.7522657437318720
  6.2972461415190004 12.7268895877868111 15.9030950784627922
 12.6870238349872739 12.6894930503763810  3.1005553605916303
  3.2355692824680533 12.6147120813153926  6.3643968059737279
  9.3892265240240746 12.6545818385616808  6.3642403167183570
 12.7470778108522520 15.7287588352740375 12.6864761597543563
 12.6556512330260222  6.5270867356315287 12.6542678457695246
  3.1693609403670600  9.3060034509624465 12.6581764636628371
  1.6169257961984158  4.8108551425338755  1.5031780865435553
  4.7476664429808570 11.1693459275547848  1.6694381655435899
  7.9048290534297596  1.4979909809523047  8.0279217085014078
 11.0301219845011733  1.5484358110642182 10.9865523025835774
 11.1304194871856446 11.0417939747473657 11.0155129371296070
 14.2324042558501418  1.5106874859490136 14.3160875175894891
 15.9430469037040012  6.3991264027680570 15.7221301305210854
  3.1901235077982122  9.4695132924622332 15.7606348802182179
  6.2544993377939280  3.2537329145758127 12.6152977163723534
 14.2736257078164961  1.4887128660175339  4.6795957227766385
  4.7607446179578359 11.2049506911897758  4.7009548968365458
 14.3377991202509456 14.3010446517685494  4.6623652517240952
 10.9980311446139378  4.7799615952979693 11.0520732937180313
 14.2322468808402380 11.0437529336905360 11.0470345071337199
 11.0554888663567699  1.4640233068367781 14.3642388085670287
  1.5122684307951704  1.5107588652065862  1.6262676551647610
  8.0015857756468556  4.7447034928268632  8.0357245041834879
 14.2440828536405473  4.8049771387308731 14.2918366665250751
  9.5409901089502149  6.4531916274257259 15.7613833522097870
  9.5582607852404600  6.4312190891406154  3.1962788238852378
 12.6588015614833633  9.4449256876601719  3.2094013262794170
 15.8656704269476414 15.7863446829157699  9.5521700972153809
  3.1372247524065284  6.3401520910311087  9.6182241169779150
 15.9096024734407919  6.4134365055868665 12.6455815344673113
  4.7617484115105491  1.5129804355776488  4.7887000145994980
  4.8189633813708559 14.2800941694856984  7.9372436195835672
  1.6198925504149067 11.1070522146207207 11.1121342885603962
  8.0113497569790990 11.1269094463016032 11.0750692088633489
  4.7366968836742576 11.1209207490331519 14.1689329126646353
  3.1441560274712339 12.7490148493373070 15.8562417371962514
  9.4703125603072760  3.1632754571535009  3.1912889144233842
 15.9110567796155316  3.1771394138490403  9.5599122335065161
 12.7499096150281641  3.2335454180241938  9.4702880755874315
  6.3097540247889130  6.3453029536494414  9.6630405945967652
 15.9031264146024593 15.7986092157034879 12.7087581600344333
 15.9701274657791537  3.1470437852188575 12.6860724544147541
  3.1226145287937057  3.1881822707797540 12.6345502070378899
 12.6552032448258984  3.1660364030898069 12.6750206488559058
  6.3317442746507684  9.3380215610260908 12.6676708674364100
 11.1411262708228236 11.0371537278186356  7.9754768658681083
  3.1645522371851809 15.7801868138016328 15.8194299960501983
  6.2807651358122722  6.4527030200431978 15.7459035929016125
 15.8503203931451662 12.7338511840959967 15.7827994439897719
  6.3493164034425877 15.7562557101849947  3.1256443437815848
  6.3460049957206426  6.3851064777499849  3.1358769807743347
  6.3363715172876676  6.3948186938912963  6.3636423297580418
 12.7306968236372242  6.4030241380978561  6.4176102038749834
 15.8093742442931653  9.4736986738205040  6.3630447030536104
 15.8356699400958796 12.6657394613284211  6.4277528608801431
  6.3132187567628995  9.5172082736150170  9.4945178325026713
  9.4620020949579082 15.7898332937636479 12.6781762199819195
  3.1492239652550271  6.3314569869405508 12.6733006111748772
  1.5977907033008982 14.2239798140209235  4.6604717453841653
  4.7558590525883266  1.4927103598664675  8.0260559803517015
 11.0470502299391224  1.5263543593685218  7.9783608986645955
 11.0913939346770842 14.2271149438399256  7.9906511008448691
  6.3651387782955968  3.1869879595938784  3.0997285200608271
 15.8290399456506083  3.1724677348456725  6.4190583566901722
  3.0916958062726092  3.1766398510609770  6.3945689189637900
  3.0903769395468221  6.3966702979075629  6.3708705893107442
  9.5801300788989288  6.4128908163783791  6.3276617184547135
 12.7484968694818033  6.4092839753241329  9.5007730195871272
  3.1327542275981819 15.8533548043220147 12.6686775818209938
  9.4252027230133706  6.4607964719138327 12.6323255805221084
  8.0239470400739403 11.0364421665598638 14.2895627830890195
 12.7077171981892434 15.8271116847780284 15.8237467678530077
 15.8448931469343623 15.8117467607741933  3.1866788974116060
  6.3743750198434617 12.7642641543328192  3.1118757060695494
  3.1773596344455872 15.8233101204560977  9.5864789948620324
  9.4723674834153755 15.8112949648949481  9.5309349031386450
 12.7396540011137489  9.4718368872312411  9.4999507671078316
  9.5025118456264046 12.6087575110315537  9.4533871934552067
  1.5664562946739942  7.9607666781376381  4.7981898062181214
 14.2341445776994640  7.9426017435315810  4.7978491503974938
 14.2573344691588950 14.2671109411662336  7.9420347077746545
  1.5666786175890193  7.9357122332951757 11.0982882413573165
 11.1296236105744111  7.9741577839829576 11.0562800025080747
 14.2705340013709456 14.2334657656725447 11.1043819721353216
  1.5998786731518080  1.5517806472404365 14.2831211903684157
 14.2449597324540616 14.2876278419727125 14.3064916686584116
  3.1682307784601913  6.3708910510803598 15.7660716646323600
 11.1376650092701084  7.9601885450738186  4.8550070372038645
 14.2486812689314792  7.9712274225692221  7.9973039895334184
  4.7497765119016737 11.0998656206250015  7.9028404240468104
  1.6045157077983616  1.5481668158562618 11.0853198644869604
  1.5704611604401144  4.7784310859114187 11.1200218393894694
  4.6983429964939747  4.7848069993961326 11.1334983606687103
  7.9323382617246088  4.7465752231049585 11.0789186160371198
  4.7407534463217544  7.8936699354421664 11.1027235349151638
  1.5773074311328072  4.7962058630026840 14.2663294361626782
  9.5784572955666079  9.4539988705345603 15.7781714156934303
  3.1351256064773607  9.5080723674239138  3.1977511450784419
 15.8134418513349377 12.6644882913100503  3.1373418585710984
  3.2593666047227434 12.7141271605628265  3.1143182701479248
  6.3271642516777424 15.8099899472945715  9.5021722079904407
  9.5078585041122050  3.1603920779527033  9.5340850713132674
 11.0610341779377688  8.0090059986718138  1.5339628173775206
  7.8909157095064595  7.9678212537138613 11.0702672779712561
 14.2432329687414860  7.9724710957367222 11.0994882290712056
  4.6835236828993008  7.8994640914011072 14.2243326188241319
  3.1901886926373066 12.7632168086519879 12.6414097281050850
  4.7846512198365874 14.2121021313963176  1.5766302233946363
 14.3083352687267453  4.7958969399618683  7.9541111778966052
 11.0680144837762224  7.9961479149374455 14.2289802910897745
  1.6481777909001405 14.1982329155407569 14.1900129411117977
  9.4772126427508976 15.8547999018504608 15.8301980144645729
 12.6619708105158217 15.8485521209486624  3.1380797125100806
  6.3654877827185068 15.8026224087474549  6.3368745994307689
  6.3668454270973509 12.6386769258917582  6.3800417285408360
  7.8321373851499763 14.2150705685637888  4.8262311369756370
  7.9972843226104908 11.0940841700538932  7.9677382741546197
 14.2691189277620687 11.0395686906989301  7.9722551369045025
  1.6281698448903881  7.8937276961643743 14.2478745569539544
  7.9706322320834238  7.9801796106107892 14.2825653741096410
 14.2534607188527662  7.9113239624660334 14.2676748781798128
 15.8483482992517679  3.1750274621481802  3.1514815510429126
  9.4722828226495643 15.7817538403113495  6.3220567917061397
 15.8157824416616499  9.4459327180886117  9.5209091178704135
 14.2823811121516968  1.5110394748722880  1.5945039308623370
  7.9493744922409846  4.8340303097875434  1.5088657600231008
 11.1571809884160551  8.0409641383344272  7.9701224473534289
  4.7276028530348038 11.1108889302883522 11.1686990465807412
  7.9016804791098743  1.5933286020367838 14.2671149154023560
 11.0957377700929101 11.0466640756516732 14.2553071540193610
  6.2850533767333845 15.8114925746720960 15.8941085890598917
  9.5018348417246141  3.1901732933311187 15.8413907590496432
  6.3434805084796775  9.5434424808669842  3.1720898613604454
  3.2202583996442895 12.6327556595574428  9.4552873749987096
  4.6817328965138740  4.8042830990974013  1.5123784086849883
 14.3069547633944527 11.0756019428427699  1.5698941797157278
  1.5593090520280641 14.2292895144565641  1.6979040977016351
 11.1284272557557635  1.5318110492162285  4.7890102260846898
 14.2826140868586293 11.1289165506069541  4.7385496773255662
  4.7191013481415434  7.9557396387457988  7.9764547338057961
  4.7372425303868972  1.5208282935144115 11.0029809635825035
 14.2882341177938006  4.7879483871972335 11.1437125026383796
 15.9025415203159195  3.1648682105779384 15.7809494089661158
  9.6040579035006495  9.4768151533120673  3.2180823714194373
 12.7119434649366934 15.7798728280157015  6.3758205147285105
  3.1000893929635289  3.1892706716338868  9.6326687622672402
  4.7069870649870058  1.5706351049553231  1.5747989549871324
  7.9392389141584694 14.2618840534395996  1.5493813838931709
  4.8175429963959795 14.2113295764046903  4.7928417752963410
  1.6464515890268430  1.5264935971839708  8.0072754126237644
 14.2983563085553058  1.5511857105695546 11.1245869002116642
  7.8858035328054008  4.7989677652362337 14.2312425199577213
 11.1022571714471869 14.3149718096470426 14.3308374021509248
 12.6222264051804487  6.4710649102879776 15.7961036173647660
  9.4803618815204658  3.1414578806043512  6.3720214940869289
 12.7373454110598523  3.1498694219497327  6.4251112112245110
 15.7787058632898987  6.3967873703709319  9.6015175337215055
  3.2174118693828770  9.4679367694571201  9.6039558796853779
  6.3597036846274388 15.8579562660049973 12.6406982547649953
  9.5514610220424423 12.7300993621130338 12.6675049552375896
 11.1266661485842722 14.3486931701065874  1.5171014276299828
  1.5240511522767832  1.5153944636015395  4.7360716803140948
  6.3056498155098071  3.2055726646026939 15.8417823703025693
 15.9026081989814312  9.4737345940774365 15.7870516594934909
 12.7511071846228283 12.6860128957040512 15.8248203185158438
 12.8080927244366300 12.6681274471141627  6.4090086657755867
  9.4686184370471995  9.4648493514071053  9.5312941567025007
 12.7121256456586860 12.7364833259046968 12.6758437994912168
 14.2672635169482351  4.8180448853594449  1.5452760456176313
  1.6423429877207976  7.9481695277668889  1.5547549745197491
  7.9572558625809000 11.0701476058388035  1.5647679123818481
