Mo Nb Ta V  W 
 1.0000000000000000
    15.8515778005355408    0.0000000000000000    0.0000000000000010
     0.0000000000000025   15.8515778005355408    0.0000000000000010
     0.0000000000000000    0.0000000000000000   15.8515778005355408
 Mo  Nb  Ta  V   W  
  50  50  50  50  50
Cartesian
 15.7970739477096149 15.8022522192042345 15.8928435900615472
  6.3587148310004418  3.1516600607265683  6.2660712172809685
 15.8000559436661465  6.4765191384708158  6.3083802247801266
  7.9835771713230663  1.6021906581348961  4.7820367892268578
 14.2777956900421046  4.7187324241048527  4.7129209702779962
  1.5452187132533308  7.9240532607127783  7.9102289077147852
  4.7694809654293158 11.1310669855502713 11.1262186028029539
 14.1553077487876280 11.1273185640506558 14.2583796680950581
  7.9470339109456605  7.9905559042168637  1.6189333384475215
 11.1244565091086596  7.9320836023438996  4.7031070499678389
 15.8257463313486806  3.2287675705367942 15.7913415620165285
  9.5686123433007619  9.4653549611429444 15.7025830959662152
 12.6930762401403712  9.4886162634241256 15.8243236551542097
  3.2033333453118447 12.7608674115926721 15.8483164216163104
 15.7201053489154461  9.4973074441750516  3.1898650964749167
  3.1889798477659750  9.4813331228044273  3.1546841976539484
  9.4773865730208833  9.4774069553288616  3.1830700940727774
  3.2192772522801074 12.7233608409001508  3.1264037345226687
 15.7820879722831027 15.8240348911433344  6.3939720868733794
 12.7516974360792918 15.8335386973878069  6.4164128742228339
  9.5733380314611463  3.1839748070310763  9.5223148172359746
 12.7238802034212579  3.2078557935275187  9.4845298950201578
 15.8007033135134414  3.2629232070460970 12.7296561125514991
 12.7009559439277648  3.2839387127082955 12.7780306833091561
  6.3974399189313820  9.4780357592489395 12.7004708066698839
 15.8288243984130865 12.7349196160102309 12.5899351879615082
 11.1022299463520842  1.5340698585367469  1.5269633543887928
 11.1472886103272302  7.9447605513904263  1.5562059709692015
  7.8265761512416034 14.1540064047019722  1.5402309610481375
 14.2315629762406566 14.2397414137867937  1.6192392435335956
  7.9483380581215268  1.5766673673099341 10.9798200136692010
  8.0735616629795448  8.0527114335695256 11.1145946484015639
 14.2305545138070091  7.9442718283613738 11.1513179218485323
  7.9958247873889787  4.7658643316965179 14.2563829907962933
  4.7729017113364476  7.9482430058666269 14.2749021089636887
 12.6609096426230039  3.1727128907939468  6.4312946164162739
  9.5235769727602246 12.6627851090777561  6.3346912830655633
  6.3459676823131597  9.5124727671887133  9.4946917619717972
 11.1124487742303124 11.0744656631455811  4.7519797172911167
  1.5112738575776115 14.3192905634206156  4.6896736598748578
 14.2043094800573808  4.7752445692359666  7.9001794044224223
 11.1754086864183328  1.5300266011943389 11.1078810806680508
  3.1720917908954260  3.0926672914302791  3.2265519901064952
  3.1615346786304821  6.4315106290819406  6.3118477314294301
  6.3581993972648734 12.7009565145332015  6.3375020195339280
 12.6676314511827339 12.7216984688839592  9.5570524185671619
  8.0014777592212507  7.9754706702584643  7.9395242370900707
 11.2299316104211364  1.4879300506007884 14.2940077022749552
 14.2143218114325087  7.9745395088004765 14.2917355737916818
  7.9046786213427582 14.1720842956187543 14.2669812814724839
  9.5110521223841804 15.8286851128632726  3.1711779718407827
 15.8818496166474450  9.4849978970719384  9.5843034637202074
  1.5148998346319809  4.7606191568245793  4.7320997612376496
 11.1252682395056155  7.9434206152537818  7.9156530681721256
  1.4962521638582604  1.5026018492832613 14.2262903849397020
  6.2085087215158126 15.7202113710171787 15.8200771537720932
  9.6041808312559738  3.3088795063103569 15.8944595698851643
  3.1722309086195919  6.3287327800114568 15.8492591770315805
  9.4431655714583229  6.2720171295206635  3.1374985073955703
 12.8527037118064786  9.5086786355998711  3.1399556731519707
  9.5179546388684351 12.6717081298562224  3.1242805401834306
  6.4087131548150937  9.4851642286245337  6.2929042762513081
 15.7271910450475811 15.7660940750163707  9.5243193499753183
 12.7956329199534977 15.8245949191024735  9.4992808532227997
  3.0922277030970506  6.4079046913518258  9.5796418613850829
 15.8010775203470573 12.7876318479097630  9.6042917723190691
  3.0742601298030281 12.7397684056002607  9.6404945492131873
 15.7760451495629610  6.2823952372526435 12.7248297876079981
  6.4768238787073287  6.4077814807432754 12.7189781216842785
 12.4361136988149763  9.5589828394270828 12.6875192644773254
  4.7519810517210610  4.7910732764730337  1.6071018997875983
 11.0751609736239587  1.5368485876155162  4.8367349032412070
  4.7256274236462668  4.7428559938801067  4.7417311764431327
  4.7896788044871341  4.7072415939617471  7.9618394086745194
  4.7639469065898981 11.0973328196666490  7.8900935437979207
  4.6733513182182449 14.3610017710160687  7.9266363178235544
  4.7276568325858763  1.5622502800990423 11.0079908383836695
  1.4999855887297557  4.7620613090884065 11.1393520284250798
  4.8173286397047486  4.7157297871263726 11.0259904564884312
  7.9317551123957237  4.7040996373628232 11.0770355125021283
  4.7474212854508915  7.9384443934233646 11.1342141598161639
  4.7722857910850802 11.1756722300139799 14.3333974942597493
  6.3620839848505542  9.4313597315343767 15.8669739532451484
  6.2953894641059103 12.7587585856534194 12.6770430577720710
  1.5091728273769496 11.1194070899037740  1.6322797671983968
 11.1661914153164865 11.0702594325709622  1.5094531219368565
  4.8655772665309476  8.0336125483756327  4.6794419952903041
  1.6402806440493136  1.4295308660251682  7.9006109708297592
  6.2811623514924255 15.8088478790752696  3.1704221561133274
  6.4860686900056725  6.3444639533613127  3.1774172938941612
 12.7421463767213510  6.3990105785090465  6.3466916758203089
 12.8087073264000768  9.4861047993638969  6.2685929046804318
  9.5103871331256311 15.8614980724746850 12.6599770514832208
  3.0451230677611520  9.5377501144918053 12.6184179698679024
  8.0436519293339526 14.2142254572237476 11.0257953866574958
  1.4788267397922656 14.2859851612692736 14.2196734241319795
  3.1998758117949437  9.4947450376782019 15.9151409071442647
 15.8242605388075077  3.1512901420169626  6.3746196730810025
 12.6895528310063384  6.3527451425755981  9.5371176434742981
  1.6179944029197166 14.3468668063645133  7.9597529203475421
  3.0927212381424978  9.5225027945419338  6.2744943442873602
  9.5945826653207664  3.1135131314537885 12.7391075778424572
  1.4753314621937146  1.5735629975505225  1.6990533633294809
  7.8653811210197677 11.1017498330929989  4.6495108615905609
  7.8763429936010514  4.6642156051349266  7.9812406677462864
  8.0383613690987037 14.2694298990846384  7.9625039160832438
  9.5611204794571911  6.3698723817776060 15.8340405078706912
 15.7505007037355327  6.4904059622176593  3.2374019678052797
  9.5982691615423175  6.3553424484406591  9.5291725706636026
  7.9032653877966252  1.5816240686258003  1.5543443433920585
  1.4891928427374481 14.2506895583479665  1.6961614345593725
  1.5499729293418052  1.4598891429490757 11.1441187608720451
  8.0403059176845808 11.0174629933542665 11.0139817050822550
  9.5259573425845794  3.2550725154605611  3.1556824203033380
 15.7359054032331009  3.1862483966023212  9.4885882274421682
  3.1655199151591691  3.1616423042842188 12.7614140654124864
 11.0475456011230975 11.0925606673741957  7.9772606475559469
 14.2128149039369127  1.5823471070034327 11.2264974624576368
 11.2564578677355733 14.2876581847548252 14.2995064952111761
  3.2384852336598562 15.7871981090207374 15.8610134333483455
  3.1660724630965689  3.1294904402796644 15.7930720137669294
 12.6569585401240907  3.2287603779674021 15.8509381896825285
  6.4488549629909526  6.3894477720703149 15.8615986378867930
 12.6897908196961460  6.3338636855779882 15.8455889984226665
 15.6891309923761089 12.6330256651848671 15.8615915178677263
  6.4179280827234493  6.3711424426849739  6.2919511492234328
 15.8159382430348465  9.4744816658408340  6.2677219497990082
 15.8015851597759500 12.6503689742138281  6.3275708450474735
  3.1191077285106363 12.6831977862886429  6.2678241718251106
 15.7613329388279571  6.3778475499140450  9.4941967186868634
  3.1040324605948437  9.5580511368795200  9.5561970369177036
  6.3004108258540983 15.8015344265468389 12.7172995005931586
  3.1096236194100100  6.3431213350324533 12.7726924880991692
 12.6690249925036174  6.3272896304741071 12.7293668404097033
  3.1368179267858989 12.7510021472215218 12.6306277904882442
  9.6655589511584292 12.5913745583586678 12.6625800771182959
  1.5315769440751119  4.7428571539640076  1.6495975704656243
  4.8500569812977483 11.1545661125402162  1.6334613752355911
 11.2082099941763147 14.2282208569131008  1.5213578432112971
  4.7309641586023057  1.5847085084157089  7.9271155737953940
 11.0645954312785335  1.5646320153091406  7.9350345495339543
 11.0684884247584030 14.2566651802342506  7.9197869332019772
 14.2505481390984254  1.4959301602366812 14.2554403471686069
  6.3453332053921505 15.8889133374337082  6.2534208999131744
  9.5074365596872195  6.3386814445206756  6.2794293999308612
  6.3676155219415662  3.0683137060915184 12.7348517257302518
  9.6214960068286608  6.4257180150765425 12.7230998041459973
 14.2843214816429249  1.6203684854468483  4.7282923691142660
 14.3035331987302730 14.2791428879449036  4.6777416786501167
  7.9506559945305950 11.0414006863212286 14.2497142036561879
 12.7265021866078545 15.8557314624722405 15.8861099239667478
 15.7928135243806800 15.8750685991256155  3.1683670570637177
 15.8360819834669524  3.1987616009585946  3.2234868045663347
  6.3465616969234055 12.7504751341338540  3.1260916162735501
  9.4972486965559977 15.8238419023913508  6.3389094067764784
  3.1437054115221823 15.7687462810874379  9.5449311543717474
  9.5630042519218854 15.8493463768530614  9.5165692850886945
  6.3709502743049962  3.0973616500938213  9.5121446950176054
  9.5795478570687997 12.6446218116494968  9.5267979172306756
  7.9534375187043995  4.7206942229224698  1.5880665342795630
 11.1175296691578112  4.7881923739704728  1.5678300104706004
  1.5890633988161296  7.9582584430086936  4.7335227709423258
 14.2412571702472839  7.9739373132884594  4.7331042086543507
 14.2313352424944721  1.5923859006995922  7.9309557772961670
 11.1018274815740501  4.7513207243757458  7.9029974725261924
 14.1928876623695377 14.2235103306126582  7.9172794949387413
  1.5287493727880930  7.9383950721014633 11.1258937799073081
 11.0772316970185720  7.9905204018524660 11.1155132903660316
 14.2250008981844545 14.2979965334447172 11.1425366829127483
 11.1236595929478757  4.7928699419307241 14.3026090432794621
 14.2530715314306153  4.7541714161254660 14.2964021083121224
 11.1236253185340477 11.1234347248554446 14.2982248363104762
  4.7559071005479545 14.1943895025858566 14.2913175213907557
  6.3726460429992393  9.4785524888293082  3.1355015926471057
  4.7944555655092449  7.9459860757867098  1.6279988451175791
 14.2435230573636993  7.9142665799045009  1.5729521369912887
 14.2251383914486187 11.1047719239187561  1.5589228643439428
  4.7304490369005396  1.5700686672896293  4.7895972293199014
 14.2942863396312596 11.1328102488987515  4.7295107319169452
 14.2522353360537686  7.9525442181025019  7.9164158441433718
 14.2582478677027460  4.7399283326951194 11.1339999072157774
  1.5235488066953442 11.1319170196548676 11.1312995015389653
  1.5339788473302578 14.3379959878345833 11.1475010083137107
  1.5304952936987823  4.7546660478481559 14.3077143669325579
 15.7669069729003066 12.6393111380938095  3.1506397395199994
 15.7435680865065351 15.7398131577460170 12.6421737775865193
  9.6520167995765878  9.4925166226567761 12.7221663700856489
  7.9370107532914353  7.9674568106542134  4.7046689778701554
  4.7528478566017851  1.5385341460830395 14.2853209626706121
  6.3254929103497348 12.7071879829250207 15.8388890026079387
 12.7075221928649835 15.8088967448457964 12.6447187545276591
  4.7761671606257137 14.1910981708698785  1.5845591479898682
  7.9494095799769706  4.7452324397827859  4.7870293814277485
 11.0367381064069292 11.0462126976304695 11.0106853923153665
 11.1179255283195122  7.9542707634728433 14.2542891010968376
 12.7250242519667189 12.6518910399432229 15.8409054916203882
  3.2202885891814095 15.8201310442362626  6.2652881793432185
  9.5894450898377741  9.4594171846737094  9.5467409429783689
  4.7503223185559618 14.3066271145829447 11.0344584813652133
  8.0427671404893228  7.9868230622270202 14.2462654804640110
 12.6198440256663265  3.1656591747476623  3.0875288490505528
  9.4725793629830708  9.4859590447971236  6.2682676583078507
 12.6295028819175705  9.4737913581281230  9.5597255927373421
  6.3281382367553487 12.6956349301324121  9.5243414940867943
 14.3062391800943605  1.6157207022108513  1.5935709026109233
 11.1555414245100142 14.2725333538410943  4.7485966327063274
  7.9343781696414144  1.5586152174119747 14.3694268238527254
 14.1506667570097235 14.2958245121325547 14.2536950294842875
 12.7350150011934780  6.3538148997960020  3.0911961816244413
  4.7407684269629833  7.9470743050530288  7.9248958128373639
  4.8062598539028016  4.7552178586610481 14.2898019089236925
  3.1363737196999448  6.4549403004595529  3.1652827419024101
  6.3722131944703220 15.8273822544562925  9.5092526146185161
  3.0833053310688712  3.1481905516668203  9.5140401240461028
  6.3922315684380129  6.3995233315790472  9.5138352407585245
 15.8741976248237151  9.5470230873054884 12.6588016244951653
  4.7694488974686662  1.6013919886240360  1.5961089861248299
  4.7421008267837585 14.2665205788307521  4.7457648736931723
  1.5566990251150419 11.1436697720155493 14.2907208478173615
 12.7480770143340330 12.5865522463553656  3.1824984468233724
  9.5418330039277581  3.2493429154760465  6.3332873592100061
  1.5218965536754481  1.5227394093840143  4.7315079927741115
  8.0045288737084821  1.5514819750373301  7.9199868549008885
  1.5788006119226459  4.7726666395342381  7.9205540800933543
  9.5203337296455182 15.7768430645650355 15.8383495568337747
  6.3487595292095751  3.1995655938472995 15.8585195497121791
 15.7484488601073878  6.3315408467520156 15.8547698164491369
 15.7403135241289860  9.5744822764020476 15.9055031356710757
  9.5737851658666742 12.6529923978472976 15.7886082038876179
  3.2241418565247852 15.8316559872667533  3.1509560919711292
 12.7034394483902062 15.8946369736575175  3.1596962805151607
  6.4056422395249752  3.2150984406970000  3.1991644699689270
  3.1375198398815178  3.1232709775420706  6.3085687352199038
 12.7622797687587983 12.6468294743899836  6.3357391577472342
  3.2870395854298602 15.7567015787854636 12.7195141898323278
 12.6158842131686146 12.6290071588480473 12.6191280932564638
 14.3266354480946472  4.7371338281034845  1.6108630892465468
  1.5179207901504950  7.9371001148260119  1.5688799066066101
  7.8531194976193603 11.1016584872825508  1.5733271852753554
 11.1474133434244624  4.7628196878095457  4.7456541117089062
  1.5100027810729262 11.1286929670868648  4.6199405449000883
  4.8538947909878818 11.1164838066917824  4.6551223428597153
  7.9244509761792594 14.2219854702832720  4.7827140105208743
  1.5506683195348983 11.1288240661599787  7.9384322789197199
  8.0246166786929525 11.0869684484902091  8.0211370472154666
 14.2340783666560498 11.0776133421033407  7.9772024293579964
 11.1416342545690696  4.7223662659727372 11.1196059998250707
 14.2239040078741859 11.0904756743793964 11.1109153366197120
 11.0931508332793616 14.2947955161567659 11.0485151138348066
  1.4981917014845998  7.9562683052480816 14.3251585444568335
