Mo Nb Ta V  W 
 1.0000000000000000
    15.8515778005355408    0.0000000000000000    0.0000000000000010
     0.0000000000000025   15.8515778005355408    0.0000000000000010
     0.0000000000000000    0.0000000000000000   15.8515778005355408
 Mo  Nb  Ta  V   W  
  50  50  50  50  50
Cartesian
  6.3293996410961197  3.1990653388248047  9.6037189382614105
 12.7958301318633119  9.4892487563613752  9.5555951452318357
  7.9634821163421838  4.7377071371562849  1.4751497339953501
  7.9636375701682782  1.5530439616829139  4.7897902633642691
  7.9355516700569071 11.1070823469061182  4.6915721848080922
 11.0657656198754868 14.2828706276203938  4.8307464353200258
 14.2747519648746835  1.5553232912781829  7.9203838188043454
 11.0886040948862767  4.8334369704591396  7.9340920284049821
  1.5632062790547467  7.9151296327161180  7.9758008574464805
 11.0912108736679613  4.7132399976369790 14.2231177801070743
  4.7101743909984606 14.3004103709122816 14.2457181201264493
 12.6387486897773478 15.8758213714149861  9.5301336148660916
  6.3294298116049017  6.3825255152019187 12.6028849459132637
 12.6679321101231359  9.3797256155968558 12.6198279365279546
  7.9993898928782325  1.6149123649866066  1.4589174606300219
  4.7478333328566782  4.7477671843714511  1.5334466821442170
  4.7399189861149766  7.9294788446790951  1.5325232686434260
  1.5633474258503615 14.3228007652560265  1.6115269970422506
  4.7565561947791100  4.7355142464525777  4.7468831397205129
  4.7927238601964852  4.7279387988562211  7.9864749504878487
  1.6367129688049711 14.3229648044739744 11.1193417349528101
  4.7480496259049154  4.7382840077363104 14.1931775537129994
  6.3324183175816522  9.4115781155584912 15.7361131262329614
 12.7099251517983074  9.3099434182067977 15.8534966506860098
 15.7845836084102142 12.7166949811763086  3.2135474754583626
 15.8608289410482897 15.8148400258764212  6.3266775976916128
  7.9521581080535819 14.3373324284576356  1.5261774929062306
  7.9611566307201436  7.9135444062171505  4.7478295947925364
 12.7016005780096979  3.2350814234964145  6.3539473743782358
  3.2479127011977371  9.4419601219204718  9.5605164959833377
  3.1579587271051324  9.3969125060246377 12.7322016551686090
  4.7483317862823622 11.0764015748710687  1.5154085654070697
  7.9676946093408896  4.7698736492844791  4.7413852756650492
 11.1435133269977875 11.0582327282586892  4.7593372595287597
 11.0054861139654800  1.4579345878013181  7.9133099035508891
  1.5909250513449968  4.7535601350324921  7.9691103487096768
 14.2526400847556616  4.8000134698133641  7.9412959214031638
  9.5431902435697822 12.7537850014422798 15.7649517757075586
  3.2320714090973555  3.1450913875340989  3.2354073309291120
 12.7411463624641321 12.6723553174261223  6.3648597961698856
 12.7550244974380451 12.6142725538886520  9.5854939836095134
 11.1500768306492972  4.7842702554827374  4.7556136280521262
  1.5526569055615698 11.0804890834889544  4.7660814770122881
  7.9431712370916490  7.8779924850612302  7.9623736852164200
  7.9451968813090614 11.2005235252336384  8.0517226843629377
  1.6331168318596665 14.3475142545514629  7.9697528871336232
  4.7736860548932558 14.3480130423833945 11.0115017316599069
 10.9608841116973181 14.2757039422004635 11.0437767083637048
 11.0376813805967160  1.5672195552443313 14.3337557256521144
  8.0136798055172385 14.3930967873380791 14.2323220702169060
 15.8730656131357648 15.8210727088228715 15.7551470693373030
  9.4580435732800083 15.8408244269031382  3.1852550035833751
 12.7189896507422731  3.2021974551886077  3.2130097672667901
  6.3444856319047869  3.1289223205339720  6.3180654943097272
 15.7650003084934820  6.4171553545331328  6.3227047412553246
  3.1679790073422325  9.3697787242226074  6.2663743123545066
  9.4881896945978550  3.1827205012778856 12.6113774795575466
  1.5204135801562055  1.5540257458236071  1.6509874171345305
 11.0657791798580636 10.9668413324031846 14.3159955915995756
 14.2489046177217009 11.0328010789369291 14.2373630631945431
 15.7437726789183454  6.4347430238381422  3.2472655544062441
  9.4740991533395569 12.7218445542559575  3.1800235069856093
 11.0766526432646533  1.5723105963998225  4.7667133878431427
  4.8326762539000132 11.1486475492731074  8.0229073698623043
  4.7885696199029590 14.3497584679481580  8.0518701700990096
 14.2156199504762366  4.7148678175857217 11.1973690824428100
  3.1955658792236084  6.4311290456552719  3.2417204713507282
  3.1690098225219203  9.4295510172071673  3.2532696953334796
  3.2318515593571893 12.7421731759890680  3.1052005074077229
 12.6924028178635417 15.8284197360496002  6.2847729719883940
 15.8903113615674627  3.1183542847308972  9.5713290965958393
 15.9272952162650832 15.8398581714662736 12.7481449130076125
 15.7829788415625814  9.4938930412078655 12.7110624597310231
  9.4862030017852046  9.3555159488240971 12.7093950479331692
  6.3634440348438250 12.7814622897504755 12.6195711513497528
 11.0782066403631188  1.5606175773223321  1.4173012584131348
  1.5615956743545811 11.1060667467018845  1.5611237612361737
 11.1233005974581900 11.0252282599682463  1.4964161595385308
 14.3065400914756218 14.3426826539200647  1.5401646272879859
  1.7008923089598942  1.5203041696835013  7.9503499751473647
  7.9406217975458739  1.4449857256827923 11.0498230594646838
 15.8853388060652971 12.7064365994624069 15.7064856789845297
 12.6705672212137976 12.7206600861738330  3.1742848770824366
  6.3367421950102640  6.3551153585911369  6.3153439409868923
  3.1582477498433388 12.7079096835180572  6.4177969862136486
 12.5440548866064283 15.7674641337900940 12.8272058015111696
  9.5226342955245826 12.8254110025751995 12.6962265945301720
  1.5992613820994339  4.7836830001142854  1.5866964732935362
  1.6122748573070973 14.3337922656958607  4.7522392189780351
 11.0234831243402969  1.5183115873727013 11.1523731892700457
 14.1827122093637925  1.5151513312223954 14.2755349051860865
 15.8228566880813162  6.3386559264629012 15.7296195137993440
  9.4916088742695806  9.4273262540036349  9.5706041141250555
  6.2243978552191113  3.1285183726649954 12.5637708177602754
  7.9953485295438593 11.0512842475562181  1.4733288293085196
 14.2967069491776186  1.5528601820976460  4.7118650157347073
  4.7250336657668193 11.1180052034217383  4.7669809681437014
  1.5831937457535654 11.0318804741774841  7.9604062330125380
 11.1270539995936719  4.7412124995460232 11.1491148837743932
  7.9360428903244236 11.0208121651933109 14.2747944500207087
  6.3607898930971674 12.7671595171342318  3.1225678513992361
  9.5307820448741225  9.4818194084367438  6.3204659091077300
  7.9221827804835385 14.3069692741870487  8.0598792870358267
 14.2137542868669851 14.2771485156052673  7.9531045423239517
  6.3111849132543876 15.8928284108564792 15.8177438065540379
  3.1737456115992089  6.3652345381931141 15.7548048659364675
  9.5463880951294460  6.3608219267370414 15.7751044923006152
  9.5920129419125839  6.3774433998263973  3.1122388791219593
  6.3392378257143598  9.4781671477687386  3.1409761699657435
 12.7024455431252132  9.3654350564896358  3.1676594872460662
  6.3895932711846264  9.5092569266304299  6.3602163158583522
 15.8860466517328209 15.8900779729193058  9.6173397042673123
  3.2117212596670792  6.3249522510771534  9.5610244885392159
 15.8003570152675490 12.6148037858973527  9.5891796792495967
 15.8073328388496588  6.3783926655045224 12.7372051661102130
  7.9024913384338795 11.1767111652319215 11.0228402820305842
  4.7037370516349188 11.0467028471592474 14.1986427470422498
  3.1214619480583510 12.7405099382622602 15.8053521742531533
  9.4918793824026420  3.2232820955488877  3.0852005771715802
 15.8090460139753883  9.4418468115939440  3.1939289807784066
  9.5951141197538714  9.4257880196292803  3.1448602469652158
  3.2345032345074629  3.1560811549577221  9.6428637352449371
 12.6145921584710052  3.1257494912739974  9.4327208882033737
  6.3614479130867689  6.3052011059940725  9.6498979691855045
 15.9210755609919055  3.1822012706629135 12.7816708743481851
  6.3107926021483047  9.3259152637179188 12.6456009317833722
 15.8622527376585936 12.6946688038376507 12.6831713202494498
 11.1696694350707411 11.1008961605399605  8.0092261763214765
  3.1762699764403242 15.8672438369031941 15.8025742477891153
  3.1139669267632550  3.1615131041084172 15.7452689409808126
  6.3446604968162035  6.3754327336194034 15.7492385502956633
  6.3295346443302227 12.7678224539533431 15.8571596642995054
  6.3392829806301272 15.8731107985765867  3.1705408135826612
  6.3643303951748145  6.3226570109774283  3.1205837012222424
  9.5219470918425024  3.1795064746159225  6.3817004450033465
 12.7274731346293812  6.3977032332010415  6.2970840546507318
 15.7737206207137675  9.4547956364124204  6.3827972746348740
 15.8096118015787663 12.6752056862911626  6.3496288037321742
  9.4716707814303174 12.6789863125125191  6.2951605355347704
  3.2006445061397040  6.3885540802885661 12.6800401285814335
 12.6717383326474096  6.4413977970205512 12.7661812728954231
  4.8185806299961538  1.4696378520430700  8.0122081382364048
 11.0522500180752470 14.2793744757463070  8.0010952955042001
  6.3537008998787821  3.1493241989776788  3.1592742817337238
 15.8430314230789424  3.2209604874707791  6.3474565608374842
  3.2134238436213987  3.1582079056841694  6.3373339342458506
 12.7304917661523724  6.4309317161818065  9.5401312698068494
  3.1735395519696659 15.9530363809969060 12.6649219046344292
  9.4443421834120720  6.4056623267134540 12.6456950716541883
 12.6398907593736531 12.7239974832000318 12.7097387950057481
 12.6638161751901670 15.8261082922193719 15.7636457639281655
 15.8177566968979431 15.8074001026674846  3.1959974236843247
  9.4898674161838592 15.8002739569593409  6.3531979596584627
  3.1850081049936576 15.9095893218892162  9.6201123263834898
  9.4703068401120039 15.8062274163156218  9.5859661819545714
  6.3426231316401678 12.7876700651189079  9.6059441999588344
  9.4935953288776158 12.7036297021052000  9.5233982707046625
 14.2726184670846141  4.7742886051210558  4.7610190344891290
  1.5289025205698961  7.8949313305612820  4.7964672059128306
 14.2567670124568640  7.9304497776496587  4.7814968744061996
 11.0987555789640631  7.9283458314158759 11.1033543209859804
  1.5913677864439830  1.5824272580410197 14.2532799031287176
 14.2345619370056475  4.7563618083486698 14.2449856429171859
 14.2373417143981964 14.2804238896314875 14.2880060968029703
  9.5298778378741087  3.2124703586525496 15.8227320753648666
 14.2678851732370600  7.8718476627857843  1.5578045110218037
  4.7772233785366067  1.5738286502939789  4.8184442760882487
 11.1209159940528988  7.9162278644868564  4.7528590259824064
 14.2371692718827560  7.9373034749326283  7.9449111421375536
  1.6180229302340821  1.5851006773854839 11.1077312572758267
  4.7879859794492878  1.5333900199625470 11.0531818855820827
  4.7568192625524013  4.7799270020036149 11.1266298244182913
  7.9161021581359190  4.7333150156550152 11.1211160886948104
  4.7314560650045934  7.8885387597123247 11.1089709485063644
  1.5959331719767198  4.8187247983886330 14.2396307464614189
  9.5513786124658075  9.3880979336568888 15.8112978788462080
  6.3736122818096357 15.8244166177066141  9.5837791614289927
 12.6676493555681997  3.1908449257084661 12.7356341298779423
 11.1445234703981395  7.9121774414198445  1.5120756003765916
  4.8085083428064301  7.9188925464897313  4.7471475754436652
  7.9097457618100444  7.9329833802905929 11.0932827532414109
 14.2518036368908980  7.9692832386586003 11.1325657915511975
  4.7192650988852245  1.6174235871235416 14.2392553825614510
  4.7210361165248527  7.9250288316188788 14.2442424648044152
  1.5994926511086462 11.0629974833078020 14.2503236696280506
 11.0173233380387465 14.3578500480257052 14.2924773945247967
  9.4993505907023206 15.8083579021828093 12.6643869899154904
  4.7606962966540456 14.3128630239613699  1.5430686216383032
  7.9207629872703667 14.3035524183982901 11.0341925570835890
 11.0794980633274207  7.9427959119623566 14.2737608001948164
  1.5829967638374629 14.3026544986195976 14.2392893142123906
  9.5172625693939654 15.8868338336278931 15.8057182076128164
  3.2171299455891131 15.8940016479172428  6.3410316685353463
  7.9488687262280298 14.3022437323147429  4.8038171467802799
 14.3076820417328232 14.2782591752629866  4.7360217125296646
 14.2517061276814587 11.0856313158707742  7.9716793615911739
 14.2366588062568411 11.0617237182353758 11.1713724824212530
  1.5364566589369348  7.8852108383665716 14.2141372267459953
  7.9662701699584115  7.9209993558559688 14.2400166209196986
 14.2632085662058667  7.9348934722305771 14.2865509591136295
 15.8329470954092955  3.2463926823606699  3.2199298215290622
 15.7349187134175761  9.5410520989590140  9.5433089623870107
 14.2735138417315852  1.5667495542245129  1.5648343994869900
 11.1607797962650022  4.7554574056868955  1.5060522716501257
  1.5924639619275183  4.7903301344708664  4.7779716861210968
  7.9416483625987109  4.7849218884843827  7.9531751425585142
 11.1433770628737747  7.9503983918611532  7.9486163387861160
  1.5602408993043710  7.9601507447758513 11.0991794030137694
  4.7852784984870400 11.1153287250721107 11.1252572039551669
 14.2191626486487461 14.2780897145695036 11.1192213818881598
  7.9702919195596085  1.5825619748449169 14.2364372687921197
 12.7112733025545293  6.4273069479034968  3.1895540032008141
  9.4890283847217827  6.3755486438845237  9.6501039753195315
  3.1433662404548199 12.6813224022663036  9.5467814539002873
  7.9704287878802411  7.9680795272943623  1.4910633093171159
 14.2409257761477317 11.0688691050576384  1.5507871664045805
 14.2189721416618067 11.0691102735824636  4.7550264765669805
  4.7881218339033484  7.9151712106080900  7.9704046590011535
  1.5739811424010066  4.7872156825260292 11.1365751178806747
  1.5826958297838631 11.0298312157697023 11.1154835234936495
 15.8888859190409448  3.2020311768906877 15.7493404317994106
  9.4960743798211560  3.1821494292892081  9.5111144731770949
  3.1521609562567288  3.1239000790581279 12.6430011708668975
  4.7155228940793226  1.6117966415354696  1.5636187855491754
  4.7495907475702008 14.3097665819730526  4.7993805696855274
 14.1766522819896821  1.6403779698019398 11.2272906220640269
  7.9114374726023842  4.7074749077291056 14.2249873218773661
 12.7310646436942552  3.2122443003274155 15.7921392934705835
 12.7092598212439469  6.3799004858786494 15.7607155937479213
 12.7470452413831588  9.4480148672879967  6.3649427035114519
 15.7669451000496696  6.3860804412703596  9.5786550891208364
  6.3514584708946646  9.4347705664069927  9.5974146408416914
  6.2883885573903182 15.9030616696435967 12.6673974366914255
  3.0799475183861196 12.7126257314152422 12.7227291537274354
 11.1048051168298958 14.3609368252929279  1.4908215015657946
  1.5711131735300425  1.5283693075510463  4.7666829048790724
  7.9273708677432433  1.4507448609207785  7.9916141074416904
 11.0699516241065048 11.0856016483775761 11.0940064601834560
  6.2851615526097611  3.1191035914697069 15.7832108978535572
 15.8644188874535015  9.4550855246672079 15.7934703440166562
  3.0999046073044787  9.4614299807107010 15.7371671528608541
 12.6822861561447429 12.7568139264095635 15.7510932090639351
  3.2711464960461432 15.8664743635509780  3.1598064016862413
 12.6850429373986007 15.8034956875611190  3.1558330908304844
  6.3786525106723717 15.8432072659022758  6.3170204202188387
  3.1706716440747984  6.3790751636087890  6.3351356303903259
  9.5907425263744184  6.3688245941901807  6.3129752248761308
  6.4166577229393971 12.7397211117928766  6.3433169869510433
 14.2658109682872691  4.7903483550909751  1.5577478157036464
  1.5640521498254958  7.9229270931089157  1.5446974818636652
