Mo Nb Ta V  W 
 1.0000000000000000
    15.8515778005355408    0.0000000000000000    0.0000000000000010
     0.0000000000000025   15.8515778005355408    0.0000000000000010
     0.0000000000000000    0.0000000000000000   15.8515778005355408
 Mo  Nb  Ta  V   W  
  50  50  50  50  50
Cartesian
  3.0962369275001742 15.9225735411767158  9.5330489732475403
  1.5819879440548346  1.6603060032212431  1.6003412236511976
 14.2636525626801980  1.6731554052762412  1.5863421553579007
  7.8827660823854888  4.7373510655484639  1.6425672174940267
  1.5820597076602156  7.9287881950668355  4.7577111052417393
  7.9339058563490283 11.1164647138949402  4.8428049195756522
 14.2414951449576286  1.5717956728498372  7.9690268225879661
  7.9268868823503862  4.7690498189677273  7.8864370601272054
 11.1083583352071553  4.7709278828386177  7.8820836223452622
  1.5467435773458984  7.9271742076352583  7.9122974885695232
  7.9534799080866954  1.5762120814517329 14.2389132744225257
  3.1523303098644866  6.3054635057891497 15.8875617662444952
 15.8139417900809995 12.5117790683834809  9.5107218919061740
  1.5487766761975352 14.2251539958501301  1.5536484505032060
 11.0893890335671852  7.8952940212889278  4.7304919812914124
 14.2582536932753783 11.0142095463255227  4.7713349265480476
  4.7182347481775961  1.5568648875188869 11.0585203967121064
  4.7149729702733492  4.7791719758703586 11.1015783749009120
  4.7269293739524763  4.7935855087584605 14.2875657139102863
 15.9354522142869293  3.2355993773910212 12.6624343562807233
  6.3504481961862025  9.4684056207072178 12.6937919860595834
 15.8813506050819342 12.5957067210818128 12.6394195250647936
  7.9604994642643998 14.2645861067021649  1.6242361417960620
  7.9606211926075332  1.5030965837786578 11.0779101668857827
 14.2385596557984968  1.5240314611535279 11.0880146677525229
  7.9074580575695901  7.9928418232908527 11.0736087577124032
 14.3028984774247228  7.9523877281799287 11.0977095787114788
  4.7252840529764262  1.6382233568231803 14.2482219286932619
  4.7354561222031037  7.9528513101940943 14.2546205446996641
  6.3009124017688913  6.3298282084563589  3.1492033180505956
 15.8188230689326552  9.5204413569812782  6.4104645199472978
  3.1658792581853308 12.6137505353998698  6.3935908208245076
 15.8939590077506452  6.2327806456131505  9.5465917031402387
  3.1194648886693108 12.5863681870236022 12.6510252922290203
  1.5757378815282321  4.8139085636688570  1.5990811352888774
  4.7836715730052815 11.0748449126671993  1.5757323642450558
  7.8607883030599073  4.7315142550106728  4.6901969601727220
 11.0314819919083273 11.0840391391469968  4.7847684399070571
 14.3129688074190771  4.7549816093808666  7.9052054943427716
  7.9473391341777306 14.2557495229977800 11.0168780521865894
  1.5099913450367639 14.1718811297793952 14.2789097674300027
 15.8770046971950816  9.5465372494999059 15.9436788649715595
  9.5714241723693245 12.5183985758414185 15.9337605036539269
 12.6443193421436195 15.8359406352703562  3.1748656291836590
  6.3867981561782585 15.8465475930356305  6.3106433510542628
  3.0717114361123867  3.2841403948847927  6.3301312566571086
  4.8074358369224042 11.1181886151680729  4.8153607369998728
  7.9522060520651774 14.1661983600741408  4.8530470346256713
 14.3068443384673003 14.2320590744781637  4.7757222326615931
 11.1022793616208553  4.7981979323919761 11.1094732588743472
 15.8139756241791023 15.8731307886134871  3.1229815415158764
  6.3400379546395493  3.1925688557049194  6.2297282045530595
  9.4471537131632672  9.3501399376347063  6.3506650364851014
  9.4838211730474953  3.2023836547499007 12.6110613693840001
 11.0459863236747182 14.2088853933292540  4.7835213376770840
  7.8901850868011838 14.1519600801753462  7.9371836622496517
 11.1123657507113087  4.8034765571732860 14.2450876023878958
 14.3231842987515670 11.0811519132232732 14.2917871982041191
  6.4881447596008375  9.4602588746252660  3.1647281950111359
 12.6526976841274994  9.5163616371229178  3.0978261233363624
 15.9004844201167170 15.9381705307582493  9.5445156319363846
  3.0771105343444765  6.2830084840235365  9.4952656338579153
 15.8066751004513968  6.2220946343400163 12.6925780771349093
  4.8131246939282510  1.6873684162118074  4.7544828145399993
  4.7437511219760040  7.9395312411518644  7.9775739671183095
 15.8984806796279781  3.2556991656987089 15.6964878679116975
 12.5929791818382899  9.4844187428545172 15.8288496245258585
 12.6251119219080543 15.8835015821451471  6.2796467189338872
  9.4976553185857391  3.2192688228749589  9.5228779834220383
 12.8276289303122084  3.2874491156230685 12.6074216149271905
 15.8507560005756609  9.6290534226644358 12.6450992507394560
 14.3115171708386058 14.1896667131058507  1.5063223852900414
 11.0445281514826981 11.1712805159175712  7.9590982532520442
  3.1317852252181662 15.9182974624340279 15.7878784849651783
 12.7004645083796159  9.4261416451654227  6.3792276739237499
 12.7882826579268283  6.3870020030460228 12.7668859586031971
  9.5468857957896738 12.6482414020965521 12.6463611732457828
  4.7741141801921607 14.2733537557484222  1.6022075882909323
 11.0731362013934529 14.2517044585710213  1.5769366873401478
  1.6096879340468115  1.6117184023212627  4.7742230628191908
  4.7364808447397433  1.5656812428832214  7.9609886147417717
  7.8775698260471660  1.5567016420666993  7.9339195769551036
 11.0751578739322802 14.1459953130351934  7.9759399771319455
  9.4764903864255086 15.9274444818400855 15.8948979847289635
  6.3316964236799214  3.2287177119973731 15.9845408868945515
  3.0313872642966149  9.5391901512282242 15.8526550562623623
  3.1523200901533874 15.9072139634265515  6.4021037993596082
  9.4959973089725711  6.4011870249370180  6.3076365250646527
 12.6970024983268583 12.6057166348055052  6.3830401991730925
 12.6866514989617283  6.3325132033662515  9.5008305840697869
  9.4963293278225169  9.4001326917046377  9.3996896871600448
  3.0763838954188381 15.9163381199053244 12.7032633617704409
 12.7109624152517018 12.5644527477732346 12.6412742955743678
 14.2547668775377332  1.5815687431864813  4.7613710338956228
  7.8874932310759442 11.2007889001732917  7.9749794824051099
  1.6490028241169989 14.1913069661034701  7.9984351227900898
  4.7076933381430353 14.2114653124126793 10.9550245104971076
 11.0788689752205176  1.5112728688846038 14.1657986536519296
  1.5399941003190980  8.0017390902464971 14.2578578330709167
  8.0324977293137163 14.2819727924093716 14.2607676021472063
 15.8871929011509412 15.9170522706664901 15.8065950922526675
  9.4711038152144145 15.9770518953315097  3.2350133733272566
 12.6682119469311676  3.2631907630922159  3.2756792937062817
  6.3709531197919000  3.2127350485542419  9.5878377686345129
 15.8260112256894736  9.6228674093560294  9.4857794853365469
 14.2050952961612342 14.2580566305089818  8.0159299314128276
 14.2085863540592072 14.2604167796385166 11.0664659225759632
  6.3658373780868462 15.9327728665069248 15.8829812724397694
  9.5243166080667176  6.4420807388803887 15.8787529806498160
 15.8364348876978038  6.3660671309376076  3.2483952990206113
  9.4701807070988941  6.3704042605109814  3.1608396084177799
  6.3774974104183020  9.4674654670413769  6.3564470790083920
  9.4917397578455027  6.3626579394578036  9.4837148400654065
  6.3752391538150910  6.3897116333759225 12.6832541904558607
  4.8199848110621302 14.2094757443856867  7.9871779116520640
  6.3928273664520878  9.4465942203657391 15.8717634321509067
  9.5611614261038564  9.4511492017190726 15.8795152005022349
  3.0750040807754440 12.5958631722605965 15.8021758877224112
  3.1845393558477979  6.3191166490799127  3.1703916880470469
 15.8368226800543592  9.4811525142335338  3.1437148836055906
  3.1288252628399236  9.5132604567227794  3.1347312167485626
  9.4710774856147477  9.4748624971108359  3.1252270372111668
 15.8433053634209493 12.5563674125389877  3.1047131167285489
  3.1660393722897959 12.5879518787438034  3.1244524444879613
 15.8895643313161479  3.2196292890385316  9.5526533899395751
  6.3802245276893270  6.3432614553284266  9.5393693510307696
 15.9409565951240211 15.8911048922998219 12.6804857673147815
  3.0523762553462501  3.1846785784338612 12.6771715659032616
  6.3283049626353947 12.6782558107612662 12.5990653715438903
  4.8013393051904325 14.2129662548389071  4.8235610724929865
 11.1320680794761504 14.2766540887289359 14.2185086521413364
  3.1553063354428383  3.2446823264465445 15.8542347224365994
 12.7307452510489973  3.2204711681403397 15.8211580228143642
  6.3492072227957630  6.3646668466833711 15.8830676293275257
  6.3665235590429257 12.6568330479807667 15.8817026973245277
  6.4494119789842772 15.9315646737838481  3.2050267031636901
 12.6797590636762951 12.5745900938826143  3.1322085236827921
  9.5632009953576613  3.1725804305286198  6.2301769907788991
 12.7111200759831782  6.3186017984998077  6.2604799004948699
 15.8310435419551396 12.5513729567883168  6.4423650068055105
  3.1029752657537313  9.6150649012119995  9.4873396787701729
  6.3368538982799567 15.8464908155340609 12.6438965461052923
  3.1313753401186184  6.3276720002815221 12.6890714275018297
  1.5835604432346215 14.2511835187586708  4.7694457499493117
 11.1709758902778482  1.4881415614702194 11.0960221239582939
 15.8657951235989501  6.3809252019708520 15.8158377798236067
  3.2235997408847368  3.3219624542650119  3.2135631521853312
 15.8821871463078530  3.2395415624508508  6.3600012367366263
  6.3474019200777372  3.2150978680725437 12.6527068790625794
  7.9972541456696957 11.0568653668533123 14.2550913046393521
  6.3602193033352261 12.6901958541867916  9.5690589143863232
  9.4971262029647399 12.6507720967397468  9.5408956436431804
  7.9001317039659416  1.6633540754030951  4.7343608095182814
  1.5927911414379501  4.7962394949155396  4.7819073188948993
 14.2851628557600474  4.7744824916222885  4.7850388231519130
 14.2880333949828913  7.9044865898378029  4.7784524046339074
 11.1328348482021742  7.8860249118406367  7.9117641879733123
  1.5788990322730112  1.6311482398165320 14.2562856071707174
 14.2842443960588241  4.8123587693940344 14.2524142263836957
 11.0939717920097642 11.0493427117765908 14.2696152276408874
 12.6789169853528314 15.8320727428181414  9.4857566343945710
  3.1628888417219816 12.5670246937776771  9.5138329442629104
  7.9290901152710136  1.6576642245507041  1.6596440077531085
  4.7812700907883388  4.7822389474898195  1.6185434274295178
  7.9455009387092552  7.9058137732648488  1.5815946692404468
 14.2745861808912871 11.0880224043753444  1.5184483445043246
 11.1220142868139718  1.6126303780479101  4.7375334605103996
  4.7803454980797460  4.7904580425226566  4.7519515716936249
  1.5624610667498007  1.6474310047872329 11.1046462453774382
  1.5777479575707991  4.7476834691138876 11.0888103744116293
  7.9336070351863084  4.8111783612152195 11.1028132250445193
 14.3161214276187554  4.7987268920139643 11.0801250685074955
  1.5900392288092051 11.1351241191787622 11.0356499479859327
  1.5640145580540354  4.7982420783314925 14.2487862747855374
  6.3355654932577847 15.8346775126024966  9.5650362974463725
 11.1023219305758118  7.9363496104057365  1.5862024224946663
  1.5473688148868079 11.0670840217612785  1.5381951460182020
 11.0882783595221941 11.0069699592178054  1.5734524731252861
  7.8982918189991134  7.8860987188718115  4.7138445717228361
  1.5749899114937234  1.6500939604137081  7.9334737662141395
  1.5135697980549982 11.1122737534446294 14.2531398723944775
 15.8875857757622327 12.6080677512423698 15.8664909818685462
  9.4796181767427043 12.6300060435551860  6.3889387085679834
  6.3113952266238558  9.4912249312430763  9.4808127659108230
  9.5154674523554874 15.8157060438311028 12.6416234079766650
 12.7315115971975334 15.8364948672040988 12.6753090165918127
  1.5525655036825698  4.7628224144125975  7.9075211755053987
 11.1273066554689688  7.9154294482125662 14.2913222057119054
  6.2941469639369281  3.2125052297286967  3.1405683747507438
  6.3728257116143565 12.6224612535815801  6.3786342874447497
 12.6991906381865114 12.6199645706486425  9.5474848151194269
  1.5604258682542367  7.9110545169376874  1.6081112116234215
  7.9523669445460579 11.0372846552493158  1.5561202561239234
 11.0653227305471908  4.7849158253626989  4.7351397480813926
  7.8634743441499158  7.9230456192143670  7.9435734764373862
  1.5866617233639879 11.1192629970528749  7.9727217850254837
 14.1964732161544873 11.0933801924517539  7.9536141759353809
 14.2368067099868139 11.1194085106940097 11.0739939108534884
  7.9416758697923289  7.9732564084280702 14.2850839025923086
 14.2943072740339403  7.9681148597125793 14.2512356561551918
 12.6998375151313958 15.8731523398334620 15.8321851663047308
 15.8509860368662494  3.2798961374760909  3.2540094505398729
  6.3767640130256478 12.6285681525989819  3.1648485681544249
  9.5181445685498094 15.9204627858889651  6.2935560137108704
 15.8611303377775119  6.2783206263595739  6.2562454545116841
  3.1787088395886909  9.5394104409219747  6.4126055792511796
  9.5366969141363356 15.8185604846439194  9.4998808901854996
 12.7253951668752485  9.5043426392191019  9.4522161717662296
 11.1018149547010250  4.7821494473611299  1.6056521864914275
  1.5438153804991539  7.9592629567448858 11.0932213678081446
 11.1180673277428461  7.9413725823500556 11.1161484556260941
  4.7846823413001456 11.1138422292321692 11.0086594129205793
  4.7422625089461850 14.2419435352560679 14.2669899802904130
 14.2668113089444990 14.2265517763357270 14.2482882620250741
  9.5116794867706727  3.1597308014925187 15.8923551356502504
 12.6884192109797755  6.3382690530904009  3.2327057148519867
  9.5103216269292137 12.5354523122002437  3.1419911716961950
 12.6911555222547463  9.5074618253416041 12.7174189951856444
  4.7366383057055463  7.9151877091210521  1.5810237470846622
 14.2489148339830436  7.9097060919691007  1.5781040840441796
  4.7311128711581807  4.7492994937670003  7.9086874345525651
 14.3228748476770988  7.8821226052664377  7.9174173706890247
  4.8453267666263748 11.1642373175220690  7.9857161063353388
  4.7363247714729235  7.9783172875024722 11.0547532054376454
  7.9346951084039050 11.0490787043577985 11.0086599071678322
  1.6122372175806736 14.2013937928510803 11.0395914635570236
  4.7653710463813521 11.0522354090780812 14.2335748891494003
  9.5409288392890499  3.1380168354310638  3.2352758839676161
 15.8826418806911764 15.8560478996599841  6.4266558210944398
  3.0244561675412966  3.1965827602829884  9.5287748227661435
 12.7256293137716270  3.2051589037666828  9.5527558810880020
  9.5730177406432482  9.4662353497812823 12.7629209325845157
  4.7628148031205031  1.6526498057811829  1.6710074024274790
 11.1366738457034682  1.6367307077540489  1.6136382554564022
  4.7434660370415758  7.9340986165457252  4.7693971900049776
  7.9673555532612301  4.7932261902485758 14.2891934327527910
 12.6659046588899944  6.4197064282678697 15.8198691346988909
 12.6360983054379208  3.2110825885025678  6.2729747627231474
  6.3497385874703065  6.3892737212723389  6.3204551767615920
  3.1100744980214854  9.5733781494053005 12.6107480972468302
 11.1138448884358532  1.5626642164759657  7.9717186409203507
 11.0789488983924809 11.0692167748162600 10.9947914704348655
 14.2543515058521582  1.5892914280777199 14.1932718793903678
 12.6547840378805265 12.5526362143566104 15.8818807201588061
  3.2002286015599055 15.8537113508093448  3.1726169280252554
  3.1330613086210861  6.3113070981577843  6.3112943276028428
  9.4512885524678492  6.4219154300546757 12.7440877156134693
 14.2645194548066314  4.8084293077562066  1.5886516734886111
  1.5827371453110348 11.0776269867241837  4.7856095425331961
 11.1906135966876761 14.2907453961900845 11.0576827365068304
