Mo Nb Ta V  W 
 1.0000000000000000
    15.8515778005355408    0.0000000000000000    0.0000000000000010
     0.0000000000000025   15.8515778005355408    0.0000000000000010
     0.0000000000000000    0.0000000000000000   15.8515778005355408
 Mo  Nb  Ta  V   W  
  50  50  50  50  50
Cartesian
 15.7690215605431945  3.1351720882291096  3.2663283619810271
  6.2896568505010295 12.7226021637846216  3.1890457246164088
  6.3405111394202835  3.0101726599452303  6.2818054577171951
 15.6948359045904287  6.3009946654988784  6.3641193216145346
 15.8495810148596359  9.5365185364075735  9.4953753537811512
 12.7191979145417466  9.4847527991223508  9.4396636918080468
  1.5216836078187617  7.9359595120924862 11.0771365501928702
 14.1364237150002197 11.1154469437943959 14.3504700369657368
 15.6788185910913107  6.3423634338374208  3.2365093416365074
  4.7054132314595627  4.6717251728382072  1.6751102592480029
  7.8941892428838161  7.9353768726285567  1.6435456339612087
  4.8271479703295732  4.6225512632093562  7.9533041825695685
  4.7580314230019480  7.9471249384612319 11.1088617263891898
  1.5928548298721508 14.2588509543511517 10.9777354212145966
  4.7313187111039348  4.7125123792076256 14.2336838471531895
  3.1845658307891056 12.8049216193525481 15.8531005179436999
  3.1983822392965240  6.3098029914701552  3.1859678427644269
 15.8051555603580098 15.7648364237216558  6.4344078023867173
 12.8055545758422582 15.7837889050396498  6.4330473509336148
  3.0430127621049903  3.1336678372029958  9.6055920247132800
 15.7839044774150548 15.7507470679694546 12.6171266010610807
 15.9031015436693846  3.2454565449363595 12.6572935490346339
 14.2635796275308948 14.3024995621376849  1.5483348232512939
  4.8460700057715957  7.9922475858026703  4.6908773999360687
  4.7638528011897217 14.3214277046603797  4.7796705431108553
 14.2802120346931911  1.5828887660534099 11.1136743926299371
  8.0313635705810480  7.9835835544896767 11.0641768475083584
  4.6929636979237346  1.5341815701178734 14.2513912494811894
  8.0096755006783766  4.6857279855185441 14.2227625418470929
  4.7464459853202028  7.9337899115600568 14.2815509762277362
  6.4625397849599091  6.3102855010801324  3.1905115341241657
 12.7727642808563129  3.2640227721571478  6.4222193415777529
  9.4571623933897424 12.6124654342654576  6.3928168731044215
  9.6341013400482858 12.6503385083310302 12.7533822451670940
 11.1448878999691505 11.0777090685276534  4.7524228908934427
 11.0705284403028106  1.6633379324282749 11.1150474308110994
 15.7496394253687715  9.4992975960133847 15.9288839242388907
  3.1231761226584425 15.8392086673953365  6.3379182783436940
 12.8412580870103827 12.6853416615189847  6.2880133327866838
 12.7207340250637770  6.2767985231532455  9.3911993120633266
 12.7466241977165016 12.7832470735104060  9.5008872429742048
 11.1457449380518394  4.7521589114810228  4.7485799667552042
  1.4869340665600010 11.1946748040308375  4.6961026384911548
  8.0170893334292224  7.9442624584506119  7.9328127180991705
  1.5791675372768814 11.2169254687147966  7.9691108870468845
 14.2303262087208537 11.1422410089836710  7.9164553876579218
 11.0432297409742475  4.6680618134761538 11.0638002980805901
  4.6778308038640137 14.2804236740929706 10.9839773824882698
 11.1045992028812464 14.1891888114916611 11.0139792317407590
  8.0236695669812903 14.2621509979683196 14.3433941826950804
  9.4848663006997871 15.9172734544045849  3.2452521781025103
 12.6482331922405393  3.2038289912819224  3.1608228530030820
 11.0956024329805132 14.2792373036600804  4.8425962566647094
  1.5430589547387239  7.9349299237480091  7.8941148061095250
 11.1298046638588364  7.9575100906892278  7.9053584139868285
 11.1193524278597646  7.9875091513804621 11.0363664004292836
  1.4632865915686890  1.5022976259804506 14.3020108597869164
  6.2318893690433406 15.8367999820387677 15.8775212011617715
  9.5698618776288882  3.3133870519692477 15.9030854493605531
  9.5169989299953706  6.3263994421345231  3.0530352037088710
 12.7561026158216322  9.4356153763216906  3.1175906539094957
  9.5906857362726896 12.6714348128822554  3.1612833753181881
  6.3867327646369274  9.5789472182322122  6.3070276710339099
 12.7776001894976581 15.8347955724792850  9.5217197420630395
  3.1303757722399976  6.2939062284819913  9.5542721470973575
 15.8566065320710177 12.7737644771604799  9.4978955326593884
 15.8752805745029395  6.2476257744419454 12.7298640138396344
  6.3687160743832258  6.3635621684525407 12.6655393127655991
 12.6120721592285339  9.5586718776861854 12.7925429307872776
  7.9746079953428088  1.5350119206886530  1.5342955226184574
  1.4333739980851061 14.3344426883943719  1.6556383066031219
 11.1091381908690785  1.5110470961304108  4.8286226568886921
  4.7313793633907686  4.6533297221964540  4.7311375703126748
  4.7245894661476822 11.1734820759782245  7.9382870860040642
  4.6498067065595876 14.3403079358969521  7.9873658825554656
  4.7349904259572639  1.5671402645525265 11.0112139610630351
  4.7651044024894942  4.6995118597598227 11.0522351787777406
  7.9819641898012215  4.6076980539793713 11.0459772410862413
  4.7462571152728659 11.1302998231276185 14.2809981465534062
  6.3461686181744890  9.5008530989859636 15.8514314836952810
 15.6993457217886068  9.5231222825661348  3.2255042074482563
  3.2134738207958047  9.5783959410613573  3.2401429704314624
  9.6792928777283525  9.5219055383300404 12.7561988975782938
 15.7821177612823735 12.6922178056052015 12.6410554776080062
  6.3321963426932779 12.7615461328373332 12.7138437111723626
  1.5049746499251522 11.1599094900818177  1.6410864416698985
 11.1646875922850644 11.1662862247202526  1.4555687773388661
 11.1560237913118616 14.2565578533573216 14.3987554584783997
  6.4100745322831507  6.2436342744586986 15.8688464717399391
 12.8425979156930090  9.4786553275972611  6.2739591683167442
 12.6267917069341831  6.2972612255233438 12.7850374363170634
  3.1016700005452420  9.5803651359338051 12.6184314590725961
 14.2520102626525222  1.4712579070142675 14.3388970845032055
 15.7778818105637360  6.3366809347913424 15.8358207066408632
  6.3200219525971351 15.9656358599249799  6.2900588980802281
  3.2501354482840155  6.3319146236488599  6.3551130384687688
  9.5168928032823157  6.3266529329211414  6.3194756696678267
  6.3507713687960825  3.0992463478566479 12.6507046390362667
  1.5145598127144460  7.8848571142435926  1.6595273946811833
 14.1928016123631782  7.9480537244110261 14.3000559590209537
  3.1757855765505525  9.6225925927327420  6.2717935385524504
  6.4199851603058145 12.7199431147013318  9.4545610253116585
  1.4633495046765799  1.5478001379616837  1.6897427459912293
  1.5839628477885517  4.6991353163418665  4.7344039324601352
  1.5267720087654229  7.8707669057430456  4.7577844802329876
  7.9067438961985568 11.0799889877847395  4.6701912609892053
  7.9394198424224873  4.6162534764753769  7.9404271534497504
  3.1439001668417625  6.2866654878615256 15.7979665386327035
  9.5659524631040433  6.3401705918652658 15.8781153383499198
 15.8170017720637119 15.8330573187755359  9.4879398033497928
  4.8220883873222480  7.8940693798778119  1.6519235016285070
  8.1167915120201002 11.1337380290460040 11.0728263765153052
  9.5349523297278846  3.1999504655616424  3.1385332940707475
  3.2020847709298241 12.7539826685930269  3.1870898219518824
 15.8451039216603977  3.1357818868176324  9.5356414717162554
 12.6996034470728567  3.2091664837881799  9.4617983496247575
  6.3476555841127560  6.3677555142980413  9.4963827061823363
  3.0104642899426515  3.1584118909069456 12.6340522940483115
 12.6901260934966675  3.2264927278141613 12.7256181416368932
  7.9999999713797791 14.2103062305780536  1.5293167464834068
 11.0771482941798780 11.1232704080950082  7.9503956286851158
  3.2519499519190518 15.7886879497538821 15.9184851794133255
  3.1558622483699081  3.1316235164734318 15.8445164210340792
 12.6055607225421227  6.3450602070457132 15.8896989875879608
 15.7505528042605896 12.7400378650269381 15.8293035135121922
  6.2780196283687761 15.9273599194759470  3.2126360089095041
  6.3649003429711195  6.4108170321034388  6.3094397413741499
 12.7724116721108185  6.2708782734986270  6.3523482410328711
 15.7707859403259150  9.5596368258307596  6.3446748900392800
 15.7950247846899146 12.7922162211475801  6.3137260198548706
  3.1061864674587940 12.7752271140184117  6.3010783726279591
 15.7946522740400006  6.3263478850501915  9.4587659767105894
  3.0893542528779148  9.5842579354250432  9.5671228471052991
  6.4230610707571874  9.5275713621302938  9.4886263634266168
  6.3634362819844714 15.7802142798141123 12.6876519586272796
 12.7261697367195374 15.7481631881296238 12.6352169541447168
  3.1180463798627627  6.3177305006779134 12.6948456711747024
  3.0987733911810298 12.6957220746019246 12.6257255059226239
  1.5507523932661087  4.6874260533142085  1.7034645303229861
  4.8090178470235410 11.0956477969165608  1.6195353417886111
  4.7148256435214844  1.5770232036045151  8.0172550002373946
 11.0741883156999670  1.5732075175482374  7.8804691156527493
 11.0779685568434694 14.2423845536316058  7.8920932834918620
  6.3242814532546880  3.1558078665295697 15.8582396485405344
 15.7531858232168247  3.1516551846022254  6.3989217610966387
  3.1213913399500299 15.8140379036465202 12.6401431093890615
  9.5715071539114618  6.3134987173723207 12.7189752716612396
 14.2631682436038361  1.4860588763592775  4.7771324963048025
 11.0925364380634992  1.5338310757482736 14.3105550025623938
  8.0332401603743886 11.1659357123908798 14.3427671054253292
 15.7732807695515849 15.7823157354464900 15.8676099208094126
 12.7499235617074458 15.7683682091515731 15.7790942612511653
 15.7493958990506666 15.8183272375214461  3.1597868864242282
  9.4869811503764581 15.8721748749539397  6.3381763561110063
  3.0385410344786954 15.8525270179083044  9.5185137644905176
  6.3833958654433109  3.1293985058272522  9.5203200348099664
  9.4879833448539106 12.6932857131904093  9.4322112346980909
  9.5634128048148295  3.1743367594924372 12.7012772716933515
  7.9552142744649865  4.7351336336619649  1.6020835653077607
 11.1177415230003458  4.7932160392554692  1.6017235444423294
  7.9803302926106605  1.5712471440229285  4.7662715786569194
 14.2627258651056152  4.7339509446523609  4.7623036868013635
 14.2646078867181583  7.9036449731407039  4.7476778756474873
 14.2448949182129656  1.5798289258822853  7.9308844699970287
 11.0642075287306803  4.7074585151256514  7.8890431651014570
 14.2603424033017596 14.2770649445816051  7.9415604923693435
 14.2629286011048038 14.2316033343106909 11.0750656817428865
 11.1001979221627174  4.7344076518370422 14.2653695264582758
 14.2544240229140282  4.7858270869411292 14.2912093849522677
 11.1385165401957273 11.1403914186180852 14.4135902346137019
  4.7151563107084264 14.2512236767607856 14.2448794176324895
 14.2103695418989773 14.2486734494723510 14.2861615505898296
  6.3588405217473634  9.4952377380085125  3.2220110315580688
  3.1004470070551542 12.6717653822590108  9.5193068027413776
 14.2010100698021660  7.9381918404904166  1.5543868987789848
  4.7164217155290222  1.6187918732604458  4.7743626719558057
 14.2860013482951000 11.1335458956979014  4.7245011433026827
 14.2787395720670069  7.9181032420282129  7.8984265226040105
  1.5235884249317264  1.5254478528224698 11.0875903470737303
  1.5321909782511098  4.7596072956480642 11.0832882481994854
  1.4987692637824981 11.1472952845143105 11.0811840180471552
  1.5401091192857488  4.7173560407341499 14.2942105254556555
 12.6463102166285211  9.4805506837105415 15.8643922372850206
 15.7639882403119778 12.7254303002475240  3.2199578742566519
  9.5760181890313234  3.1549457632160798  9.4779124193933058
  4.7233193327888428  1.6228759569320588  1.6349818786399295
 11.1437326906349874  7.9591286340112726  1.5681207498082479
  7.9360237860245100  8.0082998098625620  4.7116861583163789
  4.8106192230252818 14.2693667278991736  1.5996938298832133
 14.2632040493754655  4.7408230505999889  7.9392216093078813
 11.1487576155970380  7.9308290380126465 14.2913397885776146
  9.5236481093694554 15.8497128712858188 15.8352358776574036
  9.6129027874239465 12.6882096740194825 15.8734453146812555
 12.6970580832367954 12.7218150332734545 15.8333727940943554
  3.1878836133672164  3.0616292044964220  3.1832418477904665
  9.5190822198088370  9.5429365675230500  9.4757381515043981
  4.8320777146811968 11.1677686583703419  4.7269932073208523
 14.2866663079015623 14.3020642767690145  4.7199677687970985
  8.0284815385676520 11.1080396255710241  7.9429014064225489
  1.6032749814306964 14.3061676092057120  7.9572034660509550
  9.4693684116416144  9.5038340354384765  6.2895965089072314
  9.5647442234864606 15.8681228205140421  9.5453852616198969
 14.2545470974509865  1.5283496970879349  1.5169523813656973
  8.0287756893099935 14.3451467466520963  7.8911000768526547
  4.7749900902584859 11.1463146031815494 11.0692051541606382
  8.0526505517474796  1.5655421013298245 14.2588291513249068
 12.6891541319744565  6.3730321613863721  3.1013724838227916
  9.5526702470953815  6.2818380475855484  9.4668759023478568
 14.1774071485350834 11.1567952164231663  1.5618032652825120
 11.1417472933312567  7.9019838875311912  4.7536638530826876
  4.7339140368649471  8.0080519111301331  7.9465442649256630
 14.2583520879070242  4.7732768526271672 11.0921865680658378
 15.8270036513874341  3.2096224664796815 15.8114691608892173
  9.6229187922908768  9.4491425532082296 15.8582304455576679
  9.5640773473687748  9.4743995218094614  3.1386991242854729
  6.4094666992204283 15.8297102997041090  9.5346409095971225
 15.8176536440871818  9.5891398011825473 12.6777032647758290
  6.4097084668567215  9.5762798567072434 12.6804765013555194
 11.1326836594584986  1.5155770837030773  1.4786395137927710
  1.5985691096310151  1.5313179574652180  7.9432895156176366
  7.9892819971929789  1.6397968468458100 11.0804061566757692
 14.2303950607801433  7.9241133185539496 11.1244822620232693
  1.5645223951441947 11.1177962864550945 14.3114886937566599
 12.6529869330055984  3.2650124520821504 15.7942302082443451
  6.3086131723634038 12.7576215403188993 15.8485441947471237
 12.7326731378854578 12.7167561571189314  3.2213318555095372
  9.5227582971194451  3.1605063989513202  6.3062306814010611
  9.5636933374248798 15.8203524023073587 12.6536658596695233
 11.1149685729657115 14.2698451344725967  1.4647309621823370
  1.5188044481605083  1.5712669274529396  4.7079457627274675
  7.9094687672284563  4.7283667949259263  4.7608852565278523
  1.4995134023723109 14.3561372635776419  4.6511306407652286
  8.0045205782251241  1.6302349604620219  7.9571459565411820
  1.5542768733036618  4.7412732423329480  7.8715768902104486
 11.0818739510877666 11.1061139752095457 10.9585855084973733
  8.0400987709298821 14.1905912703341688 11.0735387192519319
  1.5333083814471293 14.3121451118017049 14.2993604491612984
  3.1516806981606567  9.4684535349539267 15.9156759779429322
  3.2595916067495869 15.8899752874248730  3.1359134393760373
 12.7085923479960083 15.8077713202577161  3.1510273284972490
  6.3782544088206716  3.0734923519214679  3.1633692248658911
  3.1556246972983657  3.1063390211888842  6.3326993645988514
  6.3632868481617146 12.6642144090424633  6.3693473281286090
 12.7066263305982563 12.6995822146961803 12.6968609811938080
 14.2503561904455935  4.7449676525865847  1.5766127093329494
  7.9479528492229576 11.1140618671962184  1.5620370251685869
  7.9334655413361483 14.3018010582643260  4.8005942028250352
 14.2281961142272024 11.0976831630099113 11.0723064271360663
  1.5362392783983927  7.9621143725449013 14.2798817489851810
  7.9851116802698110  7.9597692464249699 14.2778935499340314
