Mo Nb Ta V  W 
 1.0000000000000000
    15.8515778005355408    0.0000000000000000    0.0000000000000010
     0.0000000000000025   15.8515778005355408    0.0000000000000010
     0.0000000000000000    0.0000000000000000   15.8515778005355408
 Mo  Nb  Ta  V   W  
  50  50  50  50  50
Cartesian
 15.8958430642195587 15.7765047032246120 15.7183846059864383
 15.7155606790489379  6.4034092485649978  6.4172164260241296
  9.5367418619979567  9.4859617895170985  6.3334849859166953
 12.7937173198320053  9.4372113767107315  9.4498334198130909
 11.0889554302678626  4.8113632461038502  1.5583228255618635
  7.8219685678829611  1.5398940973291126  4.7955677420698404
  1.5414950562980960  4.7764423207645770  4.7622512496550637
 11.0356951936279533  4.7546879644465996  7.9751876707675908
  1.5789964058839794  7.9572337588600623  7.9370766114300420
 11.0615909213235657  7.9587110190500159  7.9965311254502467
 11.0526093790333046  4.7704108974629813 14.2215357249543111
 14.2574606920480544 11.0732933912944311 14.2668256559738484
  3.1633416130790328  6.4036373298997553 15.7176862776802277
  6.3298903972117184  6.4675939702434260 12.6599412653547336
  7.9652367674350106  1.5501817184826410  1.5153979534284281
  8.0051529195336268  8.0159640337899187  1.4939747080584982
 14.2439911798922374 11.1621818144844163  1.6183149526444784
  4.7932265418682114  4.6985641134043101  7.9920283395966347
  4.7345930600970005 11.0598141998795114  7.8735549001979193
  4.7489475316185743  4.7329106189875123 11.0812476829856017
  7.9658697910464626  4.7252974168538477 11.0279713183887047
  1.6084819920575795 14.3089603829141119 11.0533872532656847
  6.2976938882322315  9.3977218245949370 15.8268216896249427
  3.2168192015853125  9.5065791867480414  3.1734399300149683
 15.8110818809408986 15.8243406606980308  6.4067803560149885
 12.7589721325455692 15.8271689532532704  6.4563136148370353
  6.3673215843159108 15.8449221162436196  9.5219271603980236
  9.4817703314425277  9.3714361014070793 12.7478869065159035
  4.7275628904023668  7.9939472195178087  4.8095837185674837
  7.9481408748702114  7.9659521014543682  4.7418500963035930
  4.7383468043646815  1.5747861733570374 14.2369585487685573
  7.9379493405460240  4.7585434079428639 14.2270281182936440
  1.6059534162416469 11.0950968292187984 14.2717790801245936
 11.1363287840308036 11.1295346613404824  4.7624905360099952
  8.0241639938503511 14.2004525912529296 10.9990638058570944
  9.4816362539753936 12.7083429939279799 15.9125954785177175
  3.2153932650404160 15.7849020933226942  3.1156504170785584
 12.6799308831858806 15.8378471844124711  3.1719046192543563
  3.1668373520231858  3.1584698913067766  3.1652755407992910
  3.1647753037616986 15.8357014079200660  6.3164127536587547
 12.8172475142305835 12.7268442051738511  9.4829178769592328
 11.1272668945888338  4.7899468671556376  4.7721285078362286
  1.6063292117500227 11.1383254773152505  4.7169620497736631
  7.7654923167565677 14.2274134326228765  4.8320319387748700
  8.0473540409166286  7.9029922115657518  8.0475438113193807
  1.6048095208509385 11.0306372806909554  7.9371305181900906
 10.9518766270107655  4.7873582567002044 11.0347933887429139
  4.7375927448934556 14.2821094526094630 11.0389977132332948
 11.0573188987504931 14.2048210548493490 10.9461673539129247
  7.9789244949446569 14.2862852379635203 14.3467172934120182
  9.4420139021924800 15.8058155385225909  3.1299561935906919
 12.6329353924385206  3.2018784746862368  3.1714310845740332
  6.3747025545243909  3.2117774365283682  6.3246316889720884
  6.3888521275353574 12.6122711193183452  9.4162214171031930
 14.2493344943640547  4.7602255578242509  4.7580616741232236
  1.5989343956149482  7.9732243987072637  4.8075568618974298
  7.8562808111321480 11.1566801043520396  4.7295100195686004
 11.1383383648535172 14.2006481636481112  4.7562548181749165
 15.7542979935475760  6.4466543116797608  3.1672029571734597
  9.4751415608624558 12.7430696495397360  3.1594882896507639
  6.4261746843250007  9.6110945234527048  6.4120976255785438
 12.7133749416468209  9.4115414014209016 12.7190447103806807
  1.5578298917797435 14.2275401508028683  1.7040293472944703
  4.7690674796165089  4.7592754695752877  4.7182020416896817
  4.7885481317442444 14.2815496697522235  7.8848935789772083
  4.7250200500511728  1.5625865851566960 11.0162725475398240
  4.8013668869182062 11.0812674951530656 14.2509607824980460
 12.6607551992650649  9.3558953342859699 15.8756946541446045
  3.2123024394084694 12.7699310546177447 15.8126550334596807
  3.2295202034184283  6.3745046508370837  3.1264117471274728
 15.7511715196291195  9.4925052659178188  3.1885028079212923
 16.0509190116470108  3.1606156031563102 12.6640925991914557
 12.5407056501269878  3.2135213047287636 12.6572022667784072
 15.8721189183390408  9.3664609736547693 12.6965620608927985
 15.8360170072207005 12.8078383589821740 12.6913799661084106
  6.3568978240290717 12.6982814286330008 12.7216202196203820
 11.0666820111610527  1.4834198538775820  1.5218688829955795
  1.5745998981138893 11.1617408348606144  1.6338233569662370
 11.0858432310895960 11.1055074965880323  1.5596540945272970
 14.2973145313909491 14.2937247209573428  1.6632192401701311
  7.9745045573884656  1.6842322470138460 11.0423072148318973
  3.0699996943683012  3.1527805194192111 15.7393505246719929
  6.3407138280840503  6.4929146010068823 15.7648307538461783
  6.3547321759117752 12.8401505781965941 15.9660499813585925
  6.3565051515229793  6.3825559976110160  3.1118543751254570
 12.7640899352499648  9.4363513564108477  6.3229131501643616
  3.1704634568202330 12.6469330534133864  6.3440619369398696
  9.4033638530314754 12.6022043684563965  6.3890212760125742
 12.7289764030359738 15.7419441163723484 12.6609426745331870
  3.1803716492221121  9.3434798342145893 12.6807976582720290
  1.6043726672921164  4.7987675286231681  1.5471334932120124
  4.7472745459619139 11.1982394198712640  1.6452498885973263
  7.9511210663765608  1.6244177121097476  8.0291722417674176
 11.0331498157920933 11.0650879433526619 10.9953589882608931
 14.2151777864914433  1.5319266971092056 14.3085286300247727
  6.3735953547488382  3.1795882092908010 12.6296935709400895
 12.7130772388176929 12.7612971401833040 12.6705661409330279
  4.7671028337730634 11.1783518772823243  4.7545709496187980
 14.2774239813696529 11.0744162377810529 11.1170380298183087
 11.0465864142543548  1.5118055772268388 14.3167917334364621
  1.5231778195709744  1.5244191509058056  1.6091549623199426
  7.9788299835728482  4.7255463913377529  8.0468941814570716
 10.9967314935670402  7.9932704682136091 10.9779559140082128
 14.2517209841463721  4.7387549336754802 14.2487113678495856
  9.5564611760812710  6.4354835680542921 15.7931094987076754
  9.5372508251330590  6.3884124248654421  3.1664277589109227
 12.6369792533261229  6.4586550385100683  3.1300611507148175
 12.6486850512023494  9.4572932394603040  3.1753628660974420
 15.8120621292060566 15.8507499536980951  9.5239155117517011
 12.7734795945777666 15.8169909634564192  9.5274418722488665
  3.1303437748167346  6.3940371736969688  9.5939317125225134
 15.8304380746296616 12.6938153314799393  9.4738396849199393
 15.9175284968337714  6.4148404414472857 12.6476456705427847
  4.7791007133942420  1.5045198278299547  4.7643384908554127
  8.0420312846502959 11.0624897649800502 11.1026794564315594
  9.4695418134216798  3.2056778880241814  3.2067265601519805
 15.8708977514342919  3.1582070564070297  9.5315178716798616
 12.7164051232599107  3.2208282794122907  9.4831638883054925
  6.3051358971738543  6.3945590511305337  9.6086734735037851
 15.9002152397812484 15.8222648277709155 12.7096833769376900
  3.0793278955460681  3.1962257206506570 12.6573057514718581
  6.3664769801484153  9.3067213296707472 12.6851475984189541
 11.0839987074797950 11.0436303159204492  8.0078561515792881
  3.2033228926646173 15.7832259196480162 15.7915438236913541
 15.8207226503750444 12.7330568610362853 15.7758765969754879
  6.3599442029297819 15.7363175331282044  3.0462749361026713
  6.3778621608611479  6.3798985975254174  6.3767936182008134
 12.7168673796622329  6.3956273499396623  6.3831362997707446
 15.7930603065203048  9.5259021535648127  6.3691279487816477
 15.8085867452234847 12.6600644834686005  6.4170733157159878
  6.3587258060880334  9.4523716390975707  9.5157854410741471
  6.3407695864469549 15.7737869817488541 12.6983691854810115
  9.5098337242003605 15.8089568736365873 12.6482294520771887
  3.1369921765753563  6.3484583363981413 12.6864371582147903
 12.6528591039659108  6.4171272617852111 12.6594219744618499
  1.5378134768255154 14.2532512563211480  4.6570468247128067
  4.7520930682293026  1.5450848432273891  7.9827977135866792
 11.0201656207114418  1.5739114444848119  7.9499231358729761
 11.0672535753256280 14.2370268039974857  7.9578549425678498
 15.8388207052994989  6.4408341550350237 15.7958278821781839
  6.4061488635905635  3.1815920641646023  3.1169280234674361
 15.8120517120456441  3.1691580097960514  6.4382837558521393
  3.0914216993921309  3.1901859519170044  6.3532544231038717
  3.1630244511383618  6.3434443585539277  6.3990608324456364
  9.5459009395853176  6.3707322922766112  6.3012769611891351
 12.7514009840033093  6.3453170175540130  9.4794820331754384
  3.1380289263432322 15.8282786283817245 12.6971893860027869
  9.4103156911454793  6.3773832683710827 12.6810021872797059
 14.2853223848389312  1.5109939239349273  4.7533235738957496
  8.0132023571343804 11.0173059432272087 14.3641178003941725
 12.7145721231951594 15.8421833266891632 15.8464092390118729
 15.8484028521526330 15.8167737137102531  3.1693951882015852
  6.3746657036580778 12.7404969682265801  3.0907539298264770
  3.1343468925056746  9.5525631174576482  6.3544745079771792
  3.1501261345073983 15.8519930528031612  9.5558711800318203
  9.5361993079119252 15.8544207267452535  9.5693952079075082
  6.3463964129637596  3.2061766781224228  9.5286632613880027
  9.4444535502449884 12.6089192167381174  9.4345331298668924
  9.4878341366198828  3.1778752797291996 12.6473316472906330
 14.2383160012332066  7.9387603233981343  4.7590569636901039
 14.2398884667814212  1.5659966957907576  7.9064457615733641
 14.2653879389233111 14.2633228308800994  7.9434218188693615
  1.5708239952017062  7.9301521129983623 11.1252649911504768
 14.2944132636805445 14.2483813992081565 11.1103567177483242
  1.5897796867181917  1.5636909054551527 14.2874405885260316
  4.7734932830574293 14.2490567815473543 14.2637264834166935
 14.2321261529998164 14.3052187065391614 14.2911559379652484
  9.4862356671439656  6.3393118650105498  9.5522171827277482
  4.7647629682412820  7.9296512262944994  1.5326551948614191
 14.2533664627426102  7.9308229460143309  1.5689129219521001
 11.1166184072305487  7.9294857263024108  4.7940562301621936
 14.2899255279972692  7.9317691532655585  7.9453736511386124
  1.6177166427033911  1.5302981472739563 11.0691511420004556
  1.5523849472415827  4.8048741304359721 11.1016785752187346
  4.7187894673688975  7.9209640580749694 11.1269316594147174
  1.5531177394439830  4.7880247213852245 14.2541338917135700
  9.5993526602313874  9.4456156049946340 15.8346629029913579
 15.8123737413565877 12.6506184086946440  3.1722736768549851
  3.1844983389993096 12.6937157129060214  3.1612518601564084
  9.5370608303951698  3.1774001517669159  9.5313209612059122
 11.0771694584301645  7.9691598749628598  1.5380955418564859
  7.9550713640957804 14.2985732107256887  1.5759758204024110
  7.9882682576483113  7.9411055617056467 11.0403684023565116
 14.2703753491170158  7.9476041183748123 11.1022857264395185
  4.7046904443743074  7.9239783862783506 14.2495138815758473
 12.6399486581853715 12.6969051039071967  3.1495700286945709
  4.7283635652647797 14.1941479381780269  1.5757715778117081
  7.9396450228558795  4.7900157644927219  4.7662140400792081
 14.3006133944540164  4.8009428605116131  7.9506596367418085
 11.0787670231533397  7.9618493597486104 14.2503237777475800
  1.6230258606200210 14.2455814763969055 14.2481411673302318
  9.4736128869315426 15.8414046846692198 15.8699157926700192
  6.3188215632468880 15.8273475926565546  6.3521354763113553
  6.3521091336123350 12.6454450115830692  6.3927971712323846
  9.4382476935275381  9.5231562260756331  9.4909981892690407
  7.9914489958593071 11.0416291679642846  7.9791730291045084
 14.2742744257527168 11.0566856901849118  7.9551363397054189
  1.6028246876712553  7.9514341490960518 14.2349064050691769
  7.9728374048556327  7.9650468378423485 14.3254791279326348
 14.2655197369044835  7.9029307338801864 14.2556372825477879
 15.8444243136621896  3.1711109176957120  3.1599477597833494
  9.4741384864793741 15.8242290689525689  6.3453749107704596
 15.8486826224940103  9.4703331308753196  9.5193571560575041
 14.2772610356051235  1.5438608726606917  1.5769833731781508
  7.9450049341937481  4.8091764131191468  1.5133382240920439
  7.9401013816960395 14.2942822967702625  7.9363052939543337
  4.7894607664902002 11.0597013436634874 11.1454794605281027
  7.9791665778379857  1.5822790325301772 14.2480222977343676
 11.0774727253837035 11.0463679505886230 14.3248244102372180
  6.2909086341898570 15.7745645409626096 15.8883681344667345
  9.5230141325968152  3.1859710680503803 15.8497498939340993
  6.3024082987899845  9.4817998588586896  3.1414737121698644
  3.1769834590146502 12.6440906063012068  9.4845134275151981
  4.7630984090075410  4.7767280607199538  1.4921810728843012
 11.1101047015981447  1.5619699614909861  4.8037158109425278
 14.2236107971837651 11.1735635774041242  4.6999885094807059
  4.7014571232523634  7.9879953946093565  7.9352727766795681
 14.3028088268661406  4.7785772686426542 11.1355589965249067
  1.5704794497338586 11.0860876055479896 11.1130925939344358
  4.7691496354557277  4.7801552803281826 14.2428250298991657
 15.8996307618012480  3.1788064210540110 15.7866377143516239
  9.6134281196609646  9.4703256280439625  3.1844428546601460
  3.0507746320349964  3.1711322064759511  9.5883328420840090
  4.7228150135649001  1.5817672651402561  1.5683306279885876
  4.7718691087141822 14.2109822952922897  4.7324160247289120
  1.6292896072016398  1.5326321049954290  7.9819582126700661
 14.2854917911045618  1.5992778993339549 11.1427366238868757
 11.1022398251164223 14.3461395605602924 14.3594369248019227
 12.6403389785568674  3.1616981314126988 15.8512297526860042
 12.6767665432395624  6.4517902308046144 15.8133744781624461
  9.4632412944520805  3.2041415992397830  6.3227306058392170
 12.7457051978647566  3.1671587717630367  6.4545009517374146
 15.8116919745799827  6.3958732446592528  9.5962429243055531
  3.1711372775921771  9.4380754220293781  9.6268663095922165
  3.1930035047634937 12.7365072398592662 12.7117771437271312
  9.5696019848635352 12.6961557393186073 12.7027328576357839
 11.1548338102539848 14.3018217797040670  1.5571681047035386
  1.4982783704581288  1.5147796095162680  4.7311353029425938
  1.5306464458616802  4.8049338845402536  7.9862741313466357
 11.0067509435453132  1.5999432212548381 11.0070892189054419
  6.3577460598158098  3.1757554804586468 15.8195027061593585
 15.8267478134181729  9.4496553726952097 15.8401910070930469
  3.1981661657034155  9.4758624500565354 15.8198864942717812
 12.7556888111810309 12.7134510226486963 15.8272750224548258
 12.7662554620363888 12.6454721815890156  6.4134592407893312
 14.2605248430912042  4.7907361716761097  1.5415799290444450
  1.5888222352795953  7.9651748825899222  1.5703269139227396
  7.9376940295525227 11.0709671717155409  1.5812670926837296
 14.3000873576186720 14.2323752136736239  4.7030232737853135
  1.6166244890451389 14.3143479222627068  7.9556286251360708
