Mo Nb Ta V  W 
 1.0000000000000000
    15.8515778005355408    0.0000000000000000    0.0000000000000010
     0.0000000000000025   15.8515778005355408    0.0000000000000010
     0.0000000000000000    0.0000000000000000   15.8515778005355408
 Mo  Nb  Ta  V   W  
  50  50  50  50  50
Cartesian
  6.3434957968210783  3.2281687635635619  9.4688634764783917
 12.7003407656072760  9.4690391365876110  9.5216313940790158
  6.4116178305384732 12.5770944489627450  9.4697001568185009
  1.5916127415491386  1.6221958288450360  1.6029082135740536
 14.2789453520554250  7.9203257494401953  4.7408460895735232
 11.0838883404582766  4.8382866872638361  7.8332044512694026
  1.5435195870867262  1.6114000401026640 14.2578641802722039
  4.7978189765285446 14.2465614900456590 14.2751332282805663
 14.2170646888408623 14.2751780610239489 14.2841545452343031
  9.5875264551856798 12.6961427485976426  3.0789281704332123
 15.8767431947449325 12.4916149115057671  9.5505125270865499
  1.6019388367815917 14.2218887180521030  1.5691290972473391
 14.2392793050772308 11.0692747839851755  4.7286334611766652
 14.2962255361952373  7.9297293031947840  7.9244816514962695
  4.7693799328060926 11.0497716780500976  7.9081827860861251
  4.7661587864425519  4.7255001391416434 11.0887850091051625
  4.6952151987915416  7.9246603676070091 11.0666129540811973
  4.7817660110706885  4.7065557896362771 14.2509006520249351
  6.3420609544508615  9.4915164656932856 15.7893127362058667
 15.8769137244093894 15.8703696353663144  6.3267279894788091
  6.3406327695936087 15.8521541382418611  9.4924720503510915
 15.8073843171566519  9.6483212504184959 12.7025819277351353
  6.2693758389081253 12.6495110077712223 12.8044811319113787
 11.0938989580611587  7.9708452248765802  1.5763388719674511
  7.9577470659006462 14.2875152553707299  1.5673837749031536
 14.1642548397480450 14.2575967597620501  1.5387070682364279
  7.8802305164485045  1.6546316651514783 11.1243436061709122
 14.3194995155137672  1.6424460672291992 11.0738188724481059
  7.9356192639912058  7.9611747486349600 11.1600157575928343
  4.8241907243309585  1.5865563536160441 14.2472902695120531
  7.9061063711609023  4.7100146198843182 14.2433996982528317
  6.1888893057088188  6.4004810845091704  6.3121684749585114
 15.9120774386155404  9.4582942355457877  6.4431505166708805
 12.7748094089986939  6.3883474123004573 12.7717942105180722
  1.5664683056505624  4.7970479175395546  1.5869258033372760
  4.7762578692048576 11.0147075564751784  1.5580221980923330
  4.8294717658950255 14.2974990816041192  1.5660915777862519
 11.0559891697664820  1.6026508614256312  7.8529130638202078
 15.8176208586362872  9.5495755535445390 15.8585996161526275
 12.6739270068409215 12.5712669693245189 15.9129032639873440
  3.1913348342127761 15.8524959162614039  3.1208430487937169
  3.1784731341105839  3.2955085225865086  3.2554343706977531
  6.4063790113266244 12.5361349102896238  6.3043301343173068
 12.6141588370935249 12.6869142283664580  6.2684279457897967
  3.1325653416291770 15.8920807007195979 12.6106796713941200
 12.7088767835166330 12.5520258773855922 12.7518680609815522
  7.9824687784091246  7.9175688075382578  7.8097965513667615
 11.1119480496766716  4.8167504264124634 11.1124667493331337
 11.0949244990180382 14.2244941062249595 11.1307320765054474
  1.5094065754778145  7.9444263910453436 14.2611681321593036
 12.6851072908267373  3.3008105459247661  3.2720144879337036
  6.3677719296095603  3.1993444125868367  6.2053114925503658
  9.4930374088712366 15.8582079473534616  9.5361257383944764
  9.4512959753938492 12.5956175907080326  9.4803940461314955
  9.4722524159098356  3.1126497973473346 12.8026461999140118
 11.1161973580615836  7.9962037267414798 11.1875945038294660
 14.2609319018661207 14.1895767941024395 11.1072107837231115
 11.1244720086422824  4.7676762398120172 14.2675481887408608
  9.4988577995222538  6.4606169608481157 15.7600082192111017
 15.8478719941583055  6.3123357341237849  3.1506552502042506
  9.5145324482863245  6.3184374246839381  3.2037143037754894
  6.3349099146409573  9.5492636812188412  3.2504162111009021
 12.6453656848450784 15.8679068157681282  9.4993027759818727
  3.0937186804601966 12.5328855640291366  9.5051236196627062
 15.7665987717419434  6.2695550870309056 12.6869813563224128
  4.8326261690264296  4.7160629001191356  1.6599876654972268
  7.9895491815792816  8.0151224837302717  1.6324236387986402
  4.7887979101281557  1.7042831546350989  4.7482383287157965
  4.7908479397505150  1.6252248253043386 11.0995341803009744
  7.8816850788147450  4.7272998058836908 11.1544758895326019
  7.9917693107863617 11.0429031822889492 11.1810434898649635
  9.6040958107744796  9.5595721523257797 15.8499111261842511
  3.1283081704857048  9.4853629909538189  3.1290525987659565
  3.2184913164011544 12.5652725316118481  3.1092406330403803
 12.5818240741244693 15.8820226016988588  6.2362602629395623
 12.7456888644588080  3.2729252769602097 12.6651947010382244
  6.2614217811049571  9.4263885338728102 12.8188958951362579
 15.7974798409119614 12.5094817744542102 12.6941536906478802
 11.1992265212516173  1.6062390894563727  1.5533792377965663
 10.9843460600768843 11.0436138330993252  7.8487830711473299
  3.2181958681375793 15.8463275798867596 15.8287603836858910
 12.7360498789448560  3.2706259242599640 15.8538409555390221
  6.4259260535960196 15.8775154600036235  3.2253399750362042
  6.2711374656206678  6.3408709506569094  3.2666196307234574
 12.5640832790772361  9.4288749767002162  6.3546954272979459
 15.8697156336832652 12.6277354017963876  6.3685542549085152
  9.5378866550888759 15.9527954738478872 12.8158945756405345
 12.6559699053282557 15.8626177456459789 12.7107311634270541
  1.6455110529724419  1.7269054752808468  4.7863276588981076
  7.8853440931936536  4.7868682350147287  4.7480504202032892
 10.9685622961168345 11.0781658842007857  4.7565610218041208
  7.9136795267540139 14.2270681560745018 11.1392760239193311
  1.5771747394491937 14.2087031534071038 14.2424721438097794
  3.1814972742160128 15.9011452658477097  6.3391339032583014
 15.8523050652174824  3.3802524556881375  6.3187791924031798
  9.5116428835326641  9.4742656893240582  9.4016087361781437
  9.5109655364882428  6.4719139506476440 12.7587443948519130
 14.2449033270502170  1.6377958563476391  4.7439942207009489
 14.2448009246288105 14.2356523009024958  4.7631985038235705
  1.6122596640130780 14.1999963720226958  7.9235028431329892
 15.8503334668342752 15.8240362351374415 15.8813769499044461
 15.8717488711424455 15.8645513277552865  3.1330443984575687
  9.6047445750956921 15.8579957314790860  3.1961267549463761
  6.4009975603033027 12.5668715184946436  3.1586273717179094
 15.8708152070166904  6.3175229827200416  6.3752685150364936
  3.1324542569046709 15.9299685914273397  9.5138208643419908
 15.8968823226357188  9.5527142731074033  9.5286380890078650
  7.9543296780576336 14.2302200833418642  7.8425358760992436
 14.2636904669962661 14.2372391151221880  7.9607856861491291
  3.1531686679352982  6.3692053901581636 15.8230511794585702
 12.6510850693205086  9.5522269031053266  3.1112020924642740
  6.2838997025054093  9.4753846387814029  6.3381650242212375
  3.0983339513183452  6.3192837518054059  9.4594311380398839
  9.5207889615301866  6.3860594062669405  9.4475974644858347
  6.2962012565916758  6.3798177374005967 12.7255248142144666
 12.6841258993225594  9.5887334373367263 15.7874341187169609
  3.1696638187212618 12.5816649776680691 15.8461777852917152
  3.1388562065613161  6.3491186015080805  3.2184173803079323
 15.8566639368938826  9.5138711189730873  3.0545531192392983
 15.8137290271006528 12.5898480995731266  3.0586166376377788
 15.8951986423863367  3.3258858932411415  9.5316536303561854
 12.7182165317655294  3.2589145857370907  9.4720709045753839
  6.3020354948083135  6.3750449676273391  9.4448100679570164
 15.9173774824007381 15.8977425570651327 12.6228862569616211
  3.1196190428360118  3.1578479057111837 12.6255203377497214
  4.8012671998206953 14.2222569839285704  4.7843691450019268
  3.1828899920586573  3.1283244285041905 15.8640741132542331
  6.3665487533274838  6.4053499319602709 15.7824541955310718
 15.7853277823096558 12.5415440270474612 15.8410853946188688
  6.3423278056988766 12.6167074169606170 15.9222855410303499
 12.5707071681711113 12.7134263860060024  3.0907379539596720
  9.5936122490903717  3.1793449680790133  6.2148957620118477
 12.6860498314822419  6.3352041407203661  6.2890036572481378
  3.1262604853876770  9.4659670449295952  9.4520281010764702
  6.3503395673011287  9.4658276536029877  9.4525852515629669
  6.3624000275345267 15.9185422071334202 12.7347763108378800
  3.1542440236631508  6.3285230061833095 12.6827417711268140
  3.1590531383569873 12.5294359487379161 12.7325985539853601
  1.6432659107788192 14.2209156032664374  4.7501745906522306
  7.9477753516909173  1.5850674285204489  7.8945430448130542
 14.2232979219038569  1.6110643247840597 14.3075440873145308
 15.7675331377469092  6.3475973808525383 15.8332637953777304
  3.1026348519391842  9.4891735225197849 15.7856405004020708
  3.1677159358701705  6.3803903552497463  6.3483971753049442
 12.7189557765510646  6.3503352130400259  9.4852613048111412
  8.0532132110920163 14.2294489540063953  4.8353366451980158
 14.2183197196914435 11.0624741560659992  7.9066072903162761
  4.7869074281668791 14.2014689282076674 11.0710601102590065
  7.9977610534888761 11.0677998976991834 14.2789088224912213
  7.9681673104654207 14.2756587266398611 14.3627530282569396
 12.6662374222750014 15.8439538856839057 15.8646221481380625
  9.5857527572251406 15.9196353386446017  6.2771794376290471
  9.5146751951957160  9.4730787937178569  6.4236805744880092
  7.9438839725050396  1.5566112504897809  4.7790017761469121
  1.5778647204566312  4.7764565101949783  4.7984962435684828
 14.2706909467914844  4.7956703539853258  4.7492478393030009
 11.0187332842464851 14.2348360994173628  4.7792857487016631
  1.5818785391170080  7.9084968798351509  7.9377525063990868
 11.0939830017477004  7.8907798413508363  7.8968716553958114
  7.8960896490104480  1.5195024017395158 14.3229583977427275
 14.2579606028666035  4.7577152533611198 14.2602581408468136
 11.0842236323329875 11.0866631205453050 14.2774014738432022
 14.2415158307525651 11.0634090974656321 14.2648269792843294
  6.3466205663708193 15.8656379257972926 15.8562230297532007
 14.2190493717554709 11.0855439305928609  1.5572007036132964
 11.1308605779821761  1.5864238454549771  4.7355357616798992
  4.7425275529902935  4.7515059888437579  4.7561816782244435
  4.7172674760414290  7.9099907482764902  7.9280870352018953
  1.5744201890381342  1.6784516896443185 11.0523348066290428
  1.5598569410756244  4.7973927830563463 11.1131119247253203
 14.2732704220477018  4.8131652990136198 11.0698505189581429
  1.5823532714030921 11.0245228265550033 11.1190515500010303
  4.7590505135824301 11.0245828857517481 14.3134313646787223
  9.5264268368884846  9.5374500379955123  3.1113322179188643
  9.5459348271459170  9.4574348734334492 12.7757892786866307
  1.5664159094660965 11.0350013502768665  1.5272004276353319
 11.0791070660530533 11.0939333768702664  1.5842048867654774
  4.7005406341025893  7.9627917090915208  4.7711509462044051
  4.6966490481731951  7.9270289199889996 14.2550350196968267
  1.5401557261953085 11.0729620674024503 14.2627959538350488
  9.5063402954485827 12.6344509416791375  6.3531309667563898
 11.1094375996107253 14.3142251487623557  1.5073061567270474
  1.6018736428666984  4.7723380980098842  7.8768454500606984
 14.2785367883841037  4.8053788274926896  7.9313471402350268
 11.1339815008143930  7.9919287810551669 14.2625387742942671
  6.3804396775643415  3.1566450060808360  3.2191977423475349
  3.1507995679872405  3.2839738311565814  6.3067013336165836
  9.6066905664880338  6.3319146879176760  6.3249343724621863
  6.3604954339663369  3.1241038082920913 12.7363762460201109
 14.2218303153077397  4.7998941490815472  1.6100649719196640
  1.5441430611264935  7.8955280790411742  1.5344358296920446
  7.9923765645148110 11.0609083865068687  1.5920455995664569
 11.0792545475467286  4.8038969562046594  4.7556893822197930
  4.7432438642519781 11.0503838620769503  4.7464560279607895
  1.5714731013398797 11.0484320593927468  7.9233505390811532
  7.9467046419113547 11.0892940381804372  7.8734997799259965
 14.2351331077280570 11.0666589448839616 11.0937376327034904
 11.1993305855609950  1.6127321096337388 14.3556237582102888
  7.9572862230410379  7.9993919754829781 14.2767824241826666
 14.2956382715223231  7.9720008996600367 14.2624706173132410
 15.8114823378430387  3.2809639536150961  3.1722050277660565
  3.2125825041614919  9.4218100270438665  6.3780714828867495
 14.2213697265633954  1.5709946453604458  1.5782662958079612
  7.9010407291055618  4.7147580048741942  1.6145276769269024
 11.0765268485414889  4.7891361817041762  1.5621214153068543
  1.5595310504236342  7.9359370908199844  4.7765930969302826
  8.0660200450534987 11.0422143299265514  4.7935466703786869
 14.3054531071690541  1.6353731984915418  7.9039569228799360
  7.9585874403532610  4.7748254207253158  7.8483421067509731
  1.5327118684722614  7.9345464508843921 11.1204984985882405
  4.7705563618177651 11.0572460618332293 11.1064735324332187
  9.5067718383490636  3.0888768096806420 15.8187041098850099
 12.6929942115516461  6.3112843007343802  3.2184685627588565
 15.9074158797674201 15.8960540915704023  9.5539280652798109
 12.7335220403705325  9.5393017813992635 12.8352109792141640
  7.9266434545592226  1.5721405028424338  1.5953154463742800
  4.7459389218734440  7.9236847518288105  1.5710805852843102
 14.2294116108681798  7.9385418246473254  1.5463674867305179
 11.0099380053758615  7.9513860175456355  4.7355225705851973
  4.6977021012704343  4.7137785175321225  7.8588986860533154
  4.7334884381875630 14.2195574653320858  7.9154335015095514
  1.5956569170129777 14.1972729610947397 11.0996724145765313
  1.5365189473879992  4.7270821179026870 14.2615169419689511
 15.7547177236048714  3.2482985908195987 15.8947397932397809
  9.5512020465602312  3.1203176523130489  3.2594130749518286
  3.0592075021802305  3.2468736029269527  9.5520675086867080
  9.5191510728713187  3.2240600919463707  9.4784637435104191
 15.8406887517383801  3.2308311172315936 12.5960820753462492
  4.8298238678154215  1.6147178684377792  1.6304973898186956
  8.0190762949645151  7.9664151440788693  4.8031309883793281
  1.5632978833755058  1.6935091856063249  7.9029140423464854
 14.2745191059383476  7.9570278318769088 11.1331883201215920
 11.1492132543768445 14.2555492913079345 14.3549150308945723
 12.7500447024250860  6.3907100998818587 15.8082764340757134
 12.6736036161945478  3.2668583199032266  6.3110929398427356
  3.2007219070501733 12.5664344527234420  6.3096935715546856
 15.8730454711321993  6.3003725885443123  9.4962999513122703
  3.1462335558378038  9.5582819229518385 12.7627975519549945
  9.6017276055756842 12.6722065578665983 12.7609297551045255
  4.7293460117920949  1.6868711702069470  7.8901203088703555
 11.0055198064185298 14.2426350473563872  7.8594744193233286
 11.1034928486594691  1.6535597534778046 11.0995794988610648
 11.0716310339765034 11.0109700288589298 11.1535566483455462
  9.5876382776570956 15.9001580132370073 15.8663247347832943
  6.3733912497743876  3.1133191589589262 15.8427487605181092
  9.5803894317744831 12.6221907318111874 15.9393196702890236
 12.5632865040776522 15.7645271808324150  3.1837536991556123
  6.3574466158369995 15.8885147858255653  6.3197578835107642
 12.6244850645383053 12.6365452864485235  9.5397735637181302
  1.5834509599604401 11.0518232556183751  4.7578405274308766
