Mo Nb Ta V  W 
 1.0000000000000000
    15.8515778005355408    0.0000000000000000    0.0000000000000010
     0.0000000000000025   15.8515778005355408    0.0000000000000010
     0.0000000000000000    0.0000000000000000   15.8515778005355408
 Mo  Nb  Ta  V   W  
  50  50  50  50  50
Cartesian
 15.8306515174040001 15.8792930962395111 15.7322623937221877
 15.8771730304588878  3.2103027449501691  3.1221678082573177
 15.7159065216113270  6.3282009918574333  6.4034187293087443
 12.7116328853777549  9.4441299643822614  9.3946126971746118
 11.1271545540675412  4.7791908446995794  1.5640145355286394
  7.9035344016420330  1.5637635259109370  4.7925759688823444
  1.5755106130785561  4.6774987401120454  4.7321029788761031
  1.5253859097209539  7.9149237801665144 11.1037963172446705
 11.1694890858494329  4.6581931292284660 14.1966118638720395
 14.2015876946870865 11.1336795676818205 14.2944349940172710
  3.0545585828826431  6.3059397171010589 15.8309724032198265
  9.6400521271200184  6.2820885521015244  9.4403092755367464
  7.9621935442703435  1.5548218328903973  1.5367791668402713
  4.6706407996876811  4.6448084520866937  1.6014411885807638
 14.2154746796627300 11.1394012256272141  1.5591215465418726
  4.8131415470544949  4.6519308564796056  7.9997840801476716
  4.7718726962168931 11.1531738530008369  7.9058552855303894
  4.7451642140310728  4.6925029798632831 11.0992038438976923
  4.7570450271484273  7.9347244927771010 11.1244163269783094
  1.5694393220880860 14.3313997515732741 11.0604056359967178
  9.5611256091540380  9.3770690464333555 15.9397103141791501
 15.8235629514804419 15.9090153590100378  6.4877491077902549
 12.7580136588736437 15.8278017628694769  6.4776395635859405
  6.4230367719208896 15.8633420757992152  9.5443741780882121
  4.7686533193972274  7.8959880500391133  4.7256787827016344
 14.2488260114760745  1.6326829067851027 11.1404377228736795
  8.0206094177899718  7.9299656597598851 11.0795796418451555
  4.7130503513558102  1.5920803952825135 14.2634604644437673
  7.9596101459552484  4.7213512746594271 14.2351482043271673
  3.0902949612523747  3.1579809442745956 15.8278072416082534
 12.7374693823509286  3.2430148796580958  6.4758864963630858
  9.5638801215243081 12.6774137867988816 12.6846770493545193
 11.0656734555399723 11.0948406059535980  4.8075865166850456
  8.0083361617689111  1.6363572985754389  7.9387784222022768
  8.0212241069729142 14.2005167936015599 11.0536828889949046
  3.2433334439763817 15.8675468405861935  3.0540154194255118
  3.1228016284316085 15.8722795271323101  6.3735281978380032
  6.3701986906728933 15.8888038445204423  6.3302344697129671
 12.7738913553814140 12.7480353778029603  9.4644719905396251
  9.5994821163203436  6.3113872454161717 12.7260789266594827
 11.1306156187384833  4.7885544088841598  4.7752087876544724
  7.9514695335214709 14.2571744107914000  4.8085537227480533
 14.3525830834683337 14.3103936580145170  4.7202306440191304
  8.0402502555990516  7.9268351561714923  7.9863300225029983
  1.5158988809974563 11.1105431155930265  7.9613936998608255
 11.0749179981150867  4.6490110780052962 11.1427332650710671
  4.7267323374100680 14.3183383359900791 11.0383532393649517
 11.1098893371264538 14.1811119828594503 10.9977204198311753
  1.5653054764303249  7.8981744331236614 14.2707018596977733
  8.0373888296610563 14.2763483166368736 14.3414615132892411
  9.5196369920303745 15.8880518570471025  3.1824744625636545
 12.6212196385186175  3.1465033455237235  3.1763437623768453
  6.3552471836435762  3.2092468142079107  6.3259374168815263
 14.2711921210714436  4.7678462207354313  4.7684865461657626
 11.0174058083499649 14.2755780628473659  4.9230071691208890
  1.5165964922737263  7.9317709173970936  7.9067198690178229
 11.1039746619354389 11.1458900985087119 14.3620637730339755
 15.8218693324957442  6.3672470194871318  3.0537793758821947
  9.3884568145217067  6.3579633328099954  3.1333309309808230
  9.5554701811706639 12.7152059472835113  3.2046878400195031
  6.4510701803092401  9.5140673268832501  6.3584107321141285
 15.7295323318250411 12.7659793164844579  9.4803177917741817
 12.7325435948596049  9.4155294227213790 12.7177635310281048
  4.7575866331266949  7.8282225930222511  1.5517222521967711
  1.4709176931063521 14.3260602470374074  1.6611505067335168
 11.0913156640186923  1.5326031333310759  4.8315246858685370
  4.6990353518779973  4.6944221818397081  4.7067697712930947
  4.7293210821364458 14.3828390108633091  7.9930617519805027
  4.7233067153194570  1.5695516581445745 11.0194075532795459
  4.7645599814963528 11.0870770496180704 14.2541113299008924
  6.2935017283221857  9.4329899445905561 15.8298144412492654
 12.6917161614885146  9.3515242437116211 15.8520288443913024
  3.0523499170665582  6.2507516021427580  3.0367063932770511
 15.7720288291913278  9.3996647937640354  3.0930723592936582
  3.1446036884291719  9.4949690966374405  3.1326389272286890
  9.5926618522754907  9.4416560813829040 12.7297640006971839
 15.7374345858386437 12.7878046787526305 12.6581383223949508
  6.3358438428895401 12.7462471079145789 12.7098957261518937
 11.1641956841082735  1.5427799287629755  1.4184234664772726
  1.4894633289828030 11.1212131432575347  1.6044110453604705
 11.0669849983824680 11.1417111984312545  1.5239658930692848
 14.2699750146312319 14.2938100405199258  1.5299000152797180
  7.9789561778118392  1.7545601670885369 11.0610369399666020
  6.3946387689593953  6.2978523817491618 15.8834246075284256
 15.7778968108478033 12.7148500958131176 15.8504803397646157
  6.2762408161023009 12.8248381342979361 15.8869694586691121
  6.5383626227279068  6.2709160749911650  3.1882252155102959
 12.7475896818324532  9.4667142422616468  6.3830573207099963
 12.7455988081767551  6.3664127375392363 12.7406908403753398
  3.1909384617061423  9.4620867601377405 12.7080387577807539
  4.8259824733428891 11.1051960772315148  1.6475025442593696
  1.5691430866677800  1.5643827506182144  4.6581669022585652
 14.1504008181384453  1.6973051687302367 14.3021387218054379
  3.2106830956328243  6.3109520765818283  6.3629202082238336
 12.7057684988357309  6.3238203249229219  9.4233394865587190
  6.3397011993280783  3.1516781984152540 12.6663285649925363
  4.8554074216264862 11.1533395723822366  4.6963026608509919
 14.2411475093791875 11.0955828572959412 11.0533743208230231
 11.1614160231487141  1.5936645788487851 14.2757661435830592
  7.9474333405095008  7.9148649260853725 14.3031009438270686
  3.1790798352340146  9.5646318817467417  6.3305623775730862
  6.4200878007940192 12.7056397105792822  9.4660345738396696
  1.5672513979974498  1.6235466170401793  1.5838079723358025
  1.5153717984041797  7.8741511590115971  4.7558126230951094
  7.9526926114843777 11.1393704642408160  4.7441300240073918
  7.9800933441853843  4.6425777914106616  8.0567422203276067
 11.0765190631257084  7.9441031892461504 10.9969660574583958
  9.5087870312157996  3.2203392742405144 15.8488515286358780
  9.5799869577754269  6.3475988676520467 15.8522438769848222
 12.6877894013094075  9.4532663224326452  3.1560991731887085
 15.8292688408451490 15.9036138541187011  9.5160531164621798
 12.7525468711350101 15.8266388728820289  9.5258875112321846
  3.1422642771061757  6.2924378574058641  9.5674517623644970
 15.8153971765127626  6.2985909798690001 12.7202846314374796
  4.6785263306181211  1.6244325836776157  4.6966738114656739
  8.0935711264242691 11.0693020971153064 11.0469379631806337
  3.1927818554146872 12.7315685226720667 15.8382270901840485
  9.4378323991617474  3.2672116004577285  3.1704169831336939
 15.8881292473666900  3.1415574111904494  9.5430169191321941
 12.7081943242189297  3.2154589075781450  9.4679741554468855
  6.3251190471461145  6.3410070631112569  9.5751204078451533
 15.8437981470505882 15.8846360834839313 12.6754644543101520
  3.0221725119608900  3.1877365587980053 12.6804481449829876
 11.0342282321903795 11.1097230688237687  7.9622278374980038
 11.1249147538938224 14.2317539040026180 14.3758312245158155
  3.2482152685605055 15.8586604556047011 15.8428131414694313
 12.6983809879852583  6.3731198706455494 15.7998265735329184
  6.3447824601610252 15.8249947035439860  3.0786943097633386
  6.4054294260653597  6.3635535974995525  6.3281546874381611
 12.6829367123903083  6.3532566263146961  6.4424232044758902
 15.7804689900161730 12.6928146757825733  6.4013466406002673
  3.1495822670803144 12.7179382223662341  6.3411877733303079
 15.7667360054868393  6.3242400469095523  9.5541151035617222
  3.1629810581090392  9.5408637991081502  9.5279070079659522
  6.3957706766435711  9.5168221565843556  9.4534567174494288
  6.3576677740279397 15.7694792554323122 12.7125313573318923
  9.5408905322997253 15.8493991875615965 12.6434513252645697
 12.7365436390260012 15.7843887957566729 12.6207617715495370
  3.1562601621552422  6.3195247434262471 12.6971389608949110
  1.4840536499172934 14.3618981942339854  4.6698458602111019
  4.7485654330630371  1.5759087354815844  8.0203009467011928
 11.0229197987422030  1.5910943397629020  7.8626755319082786
 11.0261227381576603 14.2292580699608369  7.8849584134824235
  6.3265943642423110  3.1437268300884260 15.9094061029326248
 15.8603734964488847  6.3120631604722641 15.8430252575097033
 15.8273434392067802  3.1334083207614305  6.4443513700287500
  9.5640706143619774  6.3438099596281745  6.3803628942032296
  3.1300337712052868 15.8696101187238412 12.6907044578908828
 14.2844445359863030  1.5236481423352670  4.7622915183138064
  8.0008791089182356 11.1295274362316583 14.3277257426780853
 12.7230040712375505 15.8518018648363945 15.7644021244014070
 15.8074072284855518 15.8712620003498444  3.1005975607467802
  6.4177576871533812 12.8038415565345609  3.1125888266163870
  9.4795313573355049 15.8448239339569206  6.3343829988915896
  3.0785760853830073 15.9172788978217845  9.5506492297328158
  6.3731097209728294  3.2034833929825721  9.5601841983912177
  9.4721242923508111 12.6614322018429082  9.4293509508340758
  9.4991863491284416  3.1499661632045939 12.7018813071871577
  7.9382087893042481  4.7830222698756497  1.5525566634048946
 14.2569991713924900  7.9076150845859692  4.7543293718743405
 14.2596960203699545  1.5790799848282191  7.9434140534915612
 11.0678579786107392  4.6998388078549196  7.9264100359329275
 11.1196205768650795  7.9906444453786634  7.9433330923116179
 14.2461985559159618 14.2841506754550220  7.9342452766821969
 14.2742401394990992 14.2688370542933924 11.0751799981936738
  1.5590471399740713  1.5972915614504315 14.2957710189240590
 14.2637051537400161  4.7240425956309329 14.2898680022027857
  4.7351801487540905 14.2724486619515094 14.2529143545835577
 14.1933299767996530 14.2743095277158361 14.3013221190452793
  7.9265571401477031  7.8641392848259644  1.5545195110963455
 14.2743631128391701  7.8958794417722009  1.5483997086762307
 14.2482120685552420  7.9188579221219397  7.9262596469365274
  1.5777441576336879  1.5559580315908397 11.0978887371207797
  1.5337907936276791  4.7675256359110563 11.1376870916321273
  1.5952174608898873  4.7820462884103181 14.2633546403800171
 15.7825979124410019 12.6942865868234325  3.1769667118194924
  9.6252217135280009  3.2016592098062686  9.5404881034401896
 12.6758215879271514  3.2013158590817539 12.7034536354895433
  4.7022063553679763  1.6157863390301614  1.6300239165634089
 11.1121939432480730  7.9203444372484784  1.5904236594394947
  7.9954224939672658  7.9218073626365753  4.7716137292178509
  1.6028114159067535  1.5648737903254455  7.9669705623673464
 14.2154984966307136  7.9150622084064777 11.1126413399844832
  4.7403160073963519  7.9102844909997705 14.2818844231725866
 12.6708029807655951  3.2455366705765272 15.8071015911712038
  9.4688362595486915 12.6512689706036916  6.3770142856535870
  1.5728169417911502  4.6851880606052703  1.5382994300559159
  4.7586120183683063 14.2605239515222824  1.6066088942203365
  7.9500956317278035  4.7865154269565906  4.7967357866377256
 14.2843199488068766  4.7554309488695639  7.9365244582522827
 11.1431665301910758  7.9147802963597256 14.2543140759187050
  9.5342966826169508 15.8924190209779379 15.8022077345210921
  9.5212183690326917 12.7199151312231820 15.8977903838710883
 12.6998394527468417 12.7004359962128728 15.8575508297881473
  3.1206010564562048  3.1709476567646475  3.0844164708927941
  9.5348314358911157  9.4890197419316511  9.4537566057951814
  1.5376653616179046  7.9151714816721910  1.5744360129756731
  8.0599771345334297 11.1013190716505541  7.9360609266270119
 14.2348044372709044 11.1019501915822030  7.9324191110897830
 14.2628662901662828  7.8752997314417374 14.2735773168403792
  9.4886986811585423  9.4672751735012000  6.3564213016239881
  9.5610065135557161 15.8859804674822342  9.5545741108907052
 15.7393215018962849  9.4631041863725542  9.5098425638186512
 14.2217360016154295  1.6072981816931526  1.4957054101314819
  8.0651528372497978 14.3039914094943477  7.8934029538625206
  4.7988947813106391 11.1065376066395043 11.1183928777767456
  7.9857223293944166  1.5713633811127059 14.2644267913761951
  6.2548507504596733 15.8293913584295005 15.8931082315945993
 12.7324836086505293  6.4365319807399555  3.1181158674052880
  6.4366029406302570  9.3920423568948976  3.1862772996983151
  3.1547351607619443 12.6828688287221407  9.5244251627816467
  6.3205637113269226  6.3404485620566176 12.7259798095559074
 11.1062184877031385  7.9089655921313131  4.7693661079430623
 14.2826924727734710 11.1064865032943061  4.7140824161287362
  4.7558153712371869  7.9252815844212794  7.9426943746212322
  8.0022216707271099  4.7034004842540025 11.0795602179474137
 14.2482295050790864  4.7122531488226063 11.1454127835256021
  1.4943823361222921 11.0979697383794473 11.1154937441927153
  4.7146491469768774  4.7458466089881064 14.2964022818193879
 15.9055204182068888  3.2777143269276006 15.7594711960537737
  9.4998963603250299  9.4091679684087417  3.1586935279917063
  3.1569492281899389 12.7227400721205921  3.1674209577979329
  2.9954634414214754  3.1218128229263140  9.5827920884150171
 15.9623551025806272  3.2226978863733229 12.7303885069420719
 15.7344009326186018  9.4412075374917688 12.6897849823406936
  6.3846024363309075  9.5176539609543980 12.6867782652061116
  7.9872129023505849 14.2687040673179855  1.5416330246978793
  4.7770637854789317 14.2829684932115217  4.7419641698374049
  1.5518407780997583 11.0884529299672057 14.2585111069105412
 12.6437150153150757 12.7244678853717037  3.1933472785552066
  9.4906684627154796  3.2432726886014476  6.3013447909780158
 15.7323105316444884  9.5218245945144773  6.3350725778404469
  3.1584888869077941 12.7114071263966437 12.7036970340794646
 11.1465611171421628 14.2905185053003283  1.4479353963130404
  1.5410662107788993  4.7666739213565785  7.9472401839200479
 11.1064802157193387  1.6587238644629649 11.1006400967632501
 11.0654728888891949 11.0574372215922452 10.9797092496145847
  1.5760314362314185 14.2910901059066617 14.2778885890116882
 15.7818772748493110  9.4071816897707805 15.8549527081327195
  3.1411668687538992  9.4703989663176316 15.8673400899738777
 12.6732627689584874 15.8342716691411720  3.1504621305241267
  6.4000628823658303  3.1626978069688212  3.1175475314939618
  3.1111037498476835  3.1271501068623002  6.4020065413410663
  6.3805571700091877 12.6974650153395956  6.4226464310456040
 12.7681512192967599 12.6517317419819229  6.3830610305645727
 12.7091597725842043 12.7383288149372653 12.6659400006281100
 14.2276599700438720  4.7134381369504386  1.5199338993928788
  7.9198598338828177 11.1245830385594449  1.6054527594915453
  1.5008762367367501 11.1594756811480078  4.7114906374352090
  1.6081153578772489 14.3353103285845478  7.9474153115003956
