Mo Nb Ta V  W 
 1.0000000000000000
    15.8515778005355408    0.0000000000000000    0.0000000000000010
     0.0000000000000025   15.8515778005355408    0.0000000000000010
     0.0000000000000000    0.0000000000000000   15.8515778005355408
 Mo  Nb  Ta  V   W  
  50  50  50  50  50
Cartesian
 15.9374022453728781 15.7516651842053097 15.7692956248470750
  6.3013969798019724  3.2042857649077154  9.6187515751774875
 12.7927463597037310  9.4818508265407555  9.5619228239418987
  7.9675640440328941  4.7675180873599361  1.4889668437042496
  7.9584520227885722  1.5356231102385201  4.7701865700829380
  7.9144598598291083 11.1410814564224356  4.7522457135965768
 14.2847677582368000  1.5579143155413524  7.8906908615208771
 11.1112998390078879  4.8250445033502247  7.9363864970809788
  1.5546950234662911  7.9381609822970400  7.9803649989251522
 11.1074207717602533  4.7349257736337753 14.3338678062743163
  4.7250466132529247 14.2837521726061212 14.2721774042686445
 12.6725549087437752 15.8563233114565421  9.5214223342772506
  6.3448909205357156  6.4044011094689361 12.6111428914109034
  8.0024907895053126  1.6007275392077722  1.4822617399747087
  4.7338645774577754  4.7787930976250790  1.5329123595684018
  4.7353041360428598  4.7251765490877577  4.7201562868081552
  4.7539760411331775  4.7092038699288992  7.9905065838769147
  1.6023392474560032 14.2554304678412347 11.1025154479065513
  4.7551287057932052  4.7814651016568330 14.2023116862802343
  6.2595934729232896  9.3839202139465279 15.8095545951851193
 12.7475580370178960  9.4038381714196522 15.8034351113190237
 15.8908900445117212 15.8219287300502476  6.3572829165498268
  7.9608710483708007 14.3430929539543772  1.5617553665777808
  4.7445904311463059  7.9598717530611252  4.7684802497702314
  7.9406927192059014  7.9492611508277689  4.7441983809449537
  1.6972396724106349  1.5389729670479719  7.9963039279758501
 14.2848510242004103  1.5536391969268535 11.1553364014207830
  4.7370481406075253  1.5895174908159981 14.2451067457748390
 12.7187577263385627  3.2146877511565641  6.3476435632955646
  3.2630919254272213  9.5012394827587077  9.5258716915340891
  7.9251519431646189  4.7604643732832006  4.7422990027611647
 11.1566910018053314 11.0786322009194720  4.7831084688634000
 11.0266740540761248  1.4421933991156402  7.9120003805186849
  1.5881517985882552  4.7548513858416648  7.9860234902799743
 14.2901924164237890  4.7987410712188234  7.9232719960816258
  9.5656081629113441 12.7055613478457428 15.8045784832433185
  3.2269627015887834  3.1203741063310546  3.1916730025102358
 12.7550416786618293 12.6294005361069654  6.4238486480567287
 12.7922236609582196 12.5971682666788247  9.5522495617491536
 11.1713346466189360  4.7823903581765981  4.7273795880964151
  1.5319494311766995 11.1692416605646070  4.6972363616791277
 14.3805302017528032 14.2423902338042705  4.6599002770400579
  7.9089274470419388  7.9179882187299420  7.9770486199219857
  1.5468830616175693 11.0484500980157812  7.9893775137332890
  7.9203618457956182 11.2294720543288751  8.0709512234683363
  1.6915781263685747 14.3048777809194831  7.9832624193970583
  4.7728107339140662 14.3032812539025151 11.0006560646525813
 11.0201487038524153 14.2037675054218795 11.0225719835520568
 11.0649578641812667  1.5571928740506291 14.4258460810116027
  7.9655261855201731 14.3071900481826617 14.3378354320920760
  9.4872759698959701 15.8296514990645356  3.2040822686514905
 12.7347786610602292  3.1896101840691857  3.2060716385000188
 15.7843841899584749  6.4256330394475336  6.2987192851734513
  3.1219156399892247  9.5421774761704974  6.3716230490481802
  9.4742706264256267  3.1868389221137980 12.6760741599620488
  1.5343398168159699  1.5069501208546265  1.5937773307486698
 11.1668181803561861  4.7248039435853872  1.4796500751775958
 11.0602808328420430 14.2588179358683806  4.8399972134381519
  7.9128235454328664  4.7646424085927972  7.9602317230543864
 14.2571308295987613 14.2458991862101030 11.1542245271880134
  9.4725160644285040 12.7136904444079075  3.1941520397582042
 12.7543292488684727  9.4378684560172790 12.6613284034855891
  7.9898821035869423  7.9923090395370666  1.4904960105343250
 11.0963212582603106  1.5467397146503563  4.7695923353611107
  4.7447398085488706 11.0785526892590394 14.2538737563196864
  3.1593982040820481  6.4272083502140003  3.1432766649744108
  3.1221530174969354  9.4492228053603746  3.1858326236735901
  9.6270655179400801  9.4448371079348021  3.1395725685122398
 12.6697655283193917 15.8268537609102733  6.2862522993810206
 15.9074779198695460  3.0904573563844147  9.5444200776875263
  9.4823075088061000  3.1799975147525528  9.5044484442970365
 15.7406839668340339  9.5468086976648028 12.7411310735445671
  9.5275657386669579  9.3619745052083925 12.7061770284553610
  6.3604981386826065 12.7607440286329368 12.6386938277958212
 11.1234701142917132  1.5783040136386361  1.3843380145228539
  1.4959404179991058 11.1596615376750936  1.5771662514214360
 11.1174795138734641 11.0088678620081204  1.5015137397840141
 14.3640698703852596 14.2644540234108721  1.5526919240959189
  7.9054381348725231  1.5042530695773000 11.0220631411634997
  3.0957698620699623 15.8035066915345084 15.8288564991300262
 15.8764073586155021 12.7107543130038252 15.7334879184349941
  6.3017338274429298 12.7658570810286154 15.9034184711780870
 12.6595519826315872 12.6800445360591976  3.1235142217980743
  6.3416567159961215  6.3310127370687761  6.3562078115556204
  3.1883010641377512 12.6578766567647563  6.4342853655570220
  9.4710914012096286 12.7504592746494598  6.3415692155772581
 12.6410116197613522 15.7174186802165092 12.8166233301242940
  3.1649376889505492  9.4360217034868565 12.7565907382002059
  9.5295895020276422 12.7653825992452088 12.7273192978320040
  1.5795302738800787  4.7860941109008683  1.5477775226932280
 11.0940760624101209  1.5013857941611444 11.0928313157198435
 14.1814848394997988  1.5175524694609137 14.3590742538538017
 15.8045159488799403  6.3428951015104138 15.7157493282861651
 15.8528414815867400  3.2040785210305023  6.3407118883953482
  9.4969840992989880  9.4417900532384795  9.5923466604707652
  6.2682267637779328  3.1839865315370259 12.5506351933786391
 14.3434105323281500  1.5417458681163665  4.7065272458097249
  4.6876778600454942 11.1383770439903014  4.7784199978470054
 11.0977848010649538  4.7525912778470794 11.0929813587471884
  7.9714304358721195 11.0219309439561819 14.3144580776488759
  6.3663837951315632 12.7449265871766535  3.1348637170011138
  6.3063411035820742  3.1158115326637574  6.3123897870179899
  9.5016636580093330  9.5175842268500599  6.3198888394261514
  7.8812082796280638 14.2947938734173050  8.0540429059561038
  3.1790697012563731  6.4092338469459005 15.7610326246929233
  9.5531748430246388  6.4087412271292203 15.7568450344757629
 15.7519385345812246  6.3837634514025314  3.2045333840545780
  9.5897844716213978  6.4002864897175584  3.1451686012181366
  6.3241732874281373  9.5165054372209372  3.1395620233120489
 12.7183435662739903  9.3822569912529996  3.1700754740039003
  6.3379849640723904  9.6081893603822586  6.4233081328938617
 15.9262108259047057 15.8687273099605282  9.5425049824510975
  3.2091647530363696  6.3596240166308604  9.5687802333767440
 15.8131252971285114 12.6081571234894643  9.5169269869925071
 15.7943533944715675  6.3828789215059558 12.7333808268965054
  4.7577438421470477 14.3128612500479750  8.0647265273003654
  7.9052716856716660 11.1741667582515731 11.0295017622278397
  3.1115657100391161 12.7503892026964714 15.8499399509231367
  9.4901045963612329  3.2150181521504675  3.1198150747686446
 15.8164112326687292  9.4361033975222419  3.2136895749206116
 12.6981049194804143  3.1349023302024657  9.4405507006938105
  6.3328147984114436  6.3313988068980569  9.6776449978079526
 15.9215118325997427 15.8301499006600146 12.7530458187798370
 15.9044410743759705  3.1838319165111915 12.7515882618423468
  3.1587568010741451  3.1525286301644657 12.6272897938834721
 12.7052499851197886  3.1910963892082527 12.7563732351783425
  6.3289923869469753  9.3586884384180493 12.6744720777324531
 15.8293738521980760 12.6255375055773893 12.7409476436644020
 11.1452961349891329 11.0998397275498029  8.0152654133591863
  3.1128603652308477  3.1883145501568140 15.7583766609097466
  6.3075704126817191  6.4242484119925729 15.7498508287245365
  6.3448794034699976 15.8786648709885032  3.1551613426507386
  6.3220981394508886  6.3435635683396150  3.1202260265120749
  9.5246743769686315  3.1537021197853705  6.3543714770064392
 12.7566373253350758  6.3963778070755435  6.2896495887106658
 15.7918711223573975  9.4803562045650889  6.3685095371421925
 15.8338193583805484 12.6564916453258807  6.4054602179741069
  9.4982153079859657 15.7648368474051104 12.7351755220416294
  3.1741981788233153  6.3694413094301598 12.6670376387059882
 12.7058961062369526  6.4016377478491657 12.7346503325630138
  1.5451888897177395 14.2951651509622355  4.6656539296842174
  4.7620201208298996  1.4945628642167648  8.0869498700497093
 11.0545887241754013 14.2660264351876460  8.0225550247114228
  6.3372849282858690  3.1440652621657779  3.1611672968872702
  3.1823593390763802  3.1321271044020835  6.3231151827936705
  3.1293672409028046  6.3529395605296655  6.3573194825645292
  9.5523817733509784  6.3751345050283570  6.2850602851991848
 12.7452751097291799  6.4420330821066694  9.5391297217869475
  3.1504142447827670 15.8695432580556908 12.6391650896713372
  9.4696960694974255  6.4019728533997720 12.6557690007558676
 12.6830239257595903 15.7853328648591411 15.7727809479812482
 15.8815231389058038 15.8177827834526923  3.0934021414548050
  9.4678283388617821 15.7917931740772399  6.3562197514540832
  3.1637001825061279 15.8843755087438119  9.6729846601687068
  9.4577285638800017 15.8037264243701063  9.5844632511854453
  6.3016410977949517 12.7289151212272493  9.5758402745432818
  9.4841349844702663 12.7080994807510486  9.5490075970880142
 14.2801769262741445  4.7576936121932247  4.7633613592538442
  1.5453940746959467  7.9230427918772008  4.7980032737478098
 14.2660717599993543  7.9232928357635810  4.7644027834604401
 11.1333035511712009  7.9225921046827903 11.1238635132957491
  1.5928003317046531  1.5571777995618610 14.2495000876402163
 14.2355484963182022  4.7451931117967572 14.2950595465515278
 14.2633191957949030 11.0553270661897258 14.2708953403494867
 14.2479359928789435 14.2630585134019352 14.2907058547393948
  9.5162398948932125  3.2080236657858809 15.8294315441808688
  4.7451476738545786  7.9353283247721933  1.5429345041652449
 14.2758220413650108  7.9072809344287665  1.5347500940846148
  1.5266874546169531 14.2918003535003173  1.6234317410056081
  4.7618390991263473  1.5730456523057106  4.7636313743345946
 11.1337589600564026  7.9369176844631895  4.7751225161404323
 14.2509156977629647  7.9470375681044354  7.9325591913258728
  4.7888314623881572 11.1819515640484539  7.9808064188753791
  1.6075888524123987  1.5618345183145805 11.1262217969136650
  4.7715006390249828  1.5217288880815163 11.0624166299470481
  4.7395880335295972  4.7916512830684974 11.1399325875943784
  7.9259528974591449  4.7538435502113900 11.1068294840834820
  4.7430050396745234  7.9195767311951784 11.1184117893455632
  1.5843597989827503  4.8130144779943063 14.2256704246619403
  9.5829986701526106  9.4226217074770098 15.7828936035530489
 15.8079701198251819 12.6747592155681197  3.1426376303599772
  6.3387044850304992 15.8192874145682811  9.5997211065309447
 11.1383785260873438  7.9457034761926684  1.5115377537851371
  7.9060723637410870  7.9611366336893692 11.1167073796391378
 14.2554783067471096  7.9810420045205266 11.1460534202168891
  4.6961565717095368  7.9404389708269987 14.2232003994702012
  1.5726571955655857 11.0923406768552084 14.2812550994461827
 11.0870499858168028 14.3056499590698110 14.3197313042625627
 12.6986426609725633  3.1749513797575397 15.8020278120090349
  4.7812871105003509 14.3247041152647654  1.5494598187316793
  7.8944705814798715 14.2686110909051376 11.0184284031684463
 11.1095917439545566  7.9670589722893324 14.2376244524144795
  1.5985668170908014 14.2334554738209906 14.2487628958742061
  9.5267966926972960 15.8681108785208629 15.8051597618422033
  7.9127331274689112 14.3020660723210913  4.8129690600029607
 14.2410938877588755 11.0491650779057675  7.9392960248520659
 14.2606139146130850 11.0861981026201075 11.1462039771952970
  1.5468342111437896  7.9285228746078458 14.2205206857460524
  7.9746024040457977  7.9418882676925806 14.2634212521297261
 14.2449351538860256  7.9575141786054022 14.2620249406481108
 15.8134489385895645  3.2379084611376290  3.1540647652022451
 15.7254541951057654  9.5380029306460390  9.5131039089112122
 14.2525981105602089  1.5860730180810232  1.4986572254861250
  1.5790288539728810  4.7556855136475926  4.7298477143621609
 11.1447552867255784  7.9786720962050719  7.9215035300309866
 14.2356494804294211 14.2719778624128697  7.9776488509940116
  1.5432382206233404  7.9878130942281542 11.0949116427280998
  4.7880781306758156 11.1135013534430733 11.1151936588184750
  7.9284477852414792  1.6028672046826455 14.2894358062273348
 11.1077982599807417 11.0150665105496124 14.2956321801807480
  6.3276338670188217 15.8648828781152655 15.8804058374546173
 12.7437323197548515  6.4347683312224468  3.1767154579038399
  9.4936082154208474  6.4060797172811332  9.6205591866718869
  3.1684310974887433 12.6206741239956841  9.4984545657065578
 14.2933792099989585 11.0890748672509503  1.5569170532698167
 14.2587011212268244 11.1109756782603082  4.7313992663543223
  4.7690311149861797  7.9471498721426572  7.9741081281297008
  1.5581045014178680  4.7880415128037761 11.1104819171671796
 14.2715508542904423  4.7688475520910405 11.1216317033033949
  1.5724185969657816 11.0330768641109032 11.1105220510419773
 15.8996942342381473  3.2050975439769904 15.7080111366393353
  3.1728511540010937 12.7789607816643080  3.0415139565414409
  3.1870689765797824  3.1378984941149017  9.6935591112421360
  4.7161787520438363  1.5863342962695990  1.5576476162839141
  4.7372702440847005 14.2718631493440515  4.7529749501866032
  7.9065790499304720  4.7466114620745099 14.2466679837653665
 12.7084507770811825  6.4426814051563959 15.7568733484078560
 12.7700843395201815  9.4674972922745741  6.3419432327982079
 15.7714317809394906  6.4217027549800410  9.5623422185215219
  6.3153606883717286  9.4869340869548306  9.5630223197289350
  6.3444415145394597 15.8511858557443475 12.6504429397961768
  3.0970405205218192 12.6674758126658826 12.7156174744538735
  4.6913343534765879 11.1084701476906993  1.5679693850052439
 11.1192695168172389 14.3329966396420456  1.4889069133720034
  1.5341893410684433  1.5321061548300714  4.6895817644758546
  7.9046852729625163  1.4424051894799013  7.9727573562179144
 11.0882460168350683 11.0983246089359113 11.0900184573265861
  6.3135767264388019  3.1874590611857672 15.8309634890593731
 15.8336645968601246  9.5005256366035731 15.7449482657747382
  3.1146921521279620  9.4626566705625148 15.7807072464093654
 12.7335744310226744 12.6913073087412211 15.7524267506220035
  3.2086758004294076 15.8314697320665481  3.1183520103155389
 12.6987178674746488 15.8192979107424048  3.1099150382414016
  3.2007174971076866 15.8960920619866766  6.3177948271302800
  6.3191805638122291 15.8584968161878574  6.3239006736745491
  6.3227385642820897 12.7150299021895687  6.4005462383874923
 12.7256662382707280 12.6478593363185734 12.7468852921248370
 14.2159048773724699  4.7558576731958411  1.4933502271812817
  1.5191075241551677  7.9224674216038569  1.5219879671127354
  7.9897790992027984 11.0433507107240771  1.4952992620518581
