Mo Nb Ta V  W 
 1.0000000000000000
    15.8515778005355408    0.0000000000000000    0.0000000000000010
     0.0000000000000025   15.8515778005355408    0.0000000000000010
     0.0000000000000000    0.0000000000000000   15.8515778005355408
 Mo  Nb  Ta  V   W  
  50  50  50  50  50
Cartesian
 15.7965176632415378 15.8558540664065415 15.7911132976672288
 15.8451363419331877  3.1777550535522829  3.1214676388353224
 12.6019850977009629  3.1661240032206326  3.0913396685646495
  6.3465362283149780 12.8038690052208750  3.1512230038929609
  6.3350068378357669  3.1592048092261078  6.3974469370745055
 15.6940691591391239  6.3491595207630738  6.4082032369430317
 15.7362168293182147  9.4813462407896623  9.4919812649494517
 12.7484095043817760  9.4390774369449257  9.4138826749239737
  7.9401449742451078  1.5768595007595436  4.7806134276803611
  1.5058535207511328  7.9413164621255987 11.1026069328343144
 14.1851006628279652 11.1194401217377141 14.2893823255469901
 15.7448520316281755  6.3343723965292495  3.0891489001818981
  9.6163277379169259  6.3322269478492137  9.4548175868623101
  7.9692248973965611  1.5426568661744058  1.5233525025890979
  4.7229942389621549  4.6762836672015906  1.6296519129836669
 14.2010811616469041 11.1596655865244241  1.5661794857975184
  4.8177428220430993  4.6474903444121178  7.9927772692082399
  4.7310357570285220 11.1949974483104242  7.9446066543620013
  4.7714093481006703  7.9592777274245190 11.1225562065717583
  1.6057455232659925 14.2996846569738967 10.9732793071537831
  4.7276378687911516  4.7384988447891994 14.2378901140511633
  9.6006491370326668  9.3803109032494643 15.8798786756553483
 15.8316410552267524 15.8734963569591088  6.5048022356423711
 12.7744919034181059 15.8396746618762982  6.4485763163020877
  6.4204880761892351 15.8433648244160796  9.5750090018777527
 15.8505800190882482 15.8617340246513052 12.6433959600649715
 15.9662609373313789  3.2248214964523512 12.7119974191284957
 14.2203070311444701 14.2937717456392495  1.5148605941997944
  4.7700222817746738  7.9109674234691640  4.7281876865810535
 14.2864651999869725  1.6056316875404104 11.1240002645611256
  8.0359276831827735  7.9688433208981495 11.0773819510676876
  4.6854134716254210  1.5633643636780958 14.2473175864210475
  8.0042172795183717  4.7033898508593674 14.2335346219277721
  6.5058313690372778  6.3403372122539103  3.1535678620106293
 12.7543993231417385  3.2218343514604082  6.4791660137771023
  9.4726633599470595 12.6228935503996542  6.4258011893660925
  9.6347294729116388 12.6165921584138054 12.7428612554355336
 11.1204468900513422 11.0697171297227843  4.7602872596188615
  8.0145062852462470  1.6451015783979825  7.9935481718270349
 15.6941576396181368  9.4196232475807946 15.8389800738377016
  3.2478664277369722 15.8687006544600067  3.0620849025117520
  3.0501754884058196 15.8649038647508718  6.4427913837955719
 12.7834692593296904 12.7259341322692894  9.4657063756692423
  7.9496642904071120 14.3249509016276235  4.8189485251148305
  8.0416469390885190  7.9347173330756178  7.9613654536853025
  1.5338163499973332 11.1748766641599317  8.0149938236439358
 11.0699745229905915  4.6792789304172402 11.0691931771856229
  4.6808651143105875 14.2950374371126241 10.9868249573360597
 11.1294032011651680 14.1853835779207778 11.0269704217101889
  8.0528879204298978 14.2673438776776553 14.3185220676783604
  9.5481521353418177 15.8787487870972868  3.1918079900140026
  1.5787854545054369  4.6702467094851770  4.6964210496378538
 14.2419809354026672  4.7679822642791976  4.7434867406367873
 11.0609243390499383 14.2920340657693963  4.8699373735170512
  1.5328076374840132  7.9235365912127298  7.9313082582194392
 11.1273141389003705  7.9894675279552789 11.0174387966413363
  6.2411671422562653 15.8482343825032856 15.8441544102800496
  9.5953172055283353  3.2946074121732898 15.8764757941960912
  9.4657142394775633  6.3422480253483320  3.0314374629219167
  9.5831128737223299 12.6908285281002886  3.1767731143082618
  6.4388535250198240  9.5335169435629190  6.3713722328481772
 12.8043866853480548 15.8348113569978164  9.5359773356645938
  3.1159151418616662  6.3048636803285829  9.5906658273486727
 15.7604396105527673 12.8082746481299203  9.4582974339759680
 15.7637142072111960  6.3332875365761900 12.7188330367373421
  6.3097032770404251  6.3688734985949615 12.7010431211179764
 12.7012169761586406  9.4347365029320933 12.7453907339242196
  1.4371148701775924 14.3104942601534351  1.6609607208394928
 11.1158959762216139  1.5373478257561677  4.8325223650704041
  4.7267713112566998  4.6952267011122029  4.7200722929198777
  4.6465733502291844 14.3419141144185787  8.0434853096589283
  4.7370709212677404  1.5601644800919818 11.0066214401552926
  8.0074880171615703  4.6323216174183877 11.0644145874064801
  4.7871247090322546 11.0921559417480502 14.2715096472792489
  6.3488681917821133  9.4112660439277018 15.8258093704239844
 12.6381592841515253  9.4226536454555738 15.8106045677655693
  3.2274982706400266 12.7737722454933778 15.8091414962887882
  3.0889740866708157  6.2093232246419765  3.0885819910940140
 15.7186809853104652  9.4571219218383913  3.1575220456189870
  3.1557284818129818  9.5379559349896752  3.2111675809642843
  9.7098503626511103  9.5079908483023647 12.7562423682227326
 15.7204193884104200 12.7848111031837632 12.6561817526773375
  6.3613022010875087 12.7449569089001606 12.7057942358107372
 11.1808891701328221  1.5455016121130640  1.3985573124777888
  1.4873889119928492 11.1201384588509011  1.5924454679501379
 11.0628341554414220 11.1408110357984977  1.4775137730265011
  6.4199491242094675  6.2913957041686626 15.8714908114891742
 15.7449439079396996 12.7133970497367574 15.8678974669876318
 12.7693223900820136  9.4504676471751008  6.3722237432867708
 12.7197595891283477  6.3698476523151557 12.7863985147700312
  3.1998502181832205  9.4938567758444190 12.6901081824050834
 14.2473987530881985  1.6114883497618011 14.3361402063415202
  6.3773703813798353 15.9050963602430251  6.3823673936653060
  3.2157648146958064  6.2998653817405117  6.3605850405893491
  9.5479788861698172  6.3522565353066707  6.3762516331056354
  6.3630507823836542  3.1105515114674591 12.6644540312308624
  1.4990848841690683  7.8812295142176696  1.6186380270899985
 11.1337213160696749  4.7883037348113353  4.7554280972538523
  4.8183808840201241 11.1382716594800009  4.7516467136900493
 11.1743810395457057  1.5541376833933249 14.3131587612527245
  3.1512843568855691  9.5931253948415893  6.3581805816836399
  6.4074451342938463 12.7091566719790539  9.4760815646365852
  1.5127447466693100  1.5749843557231911  1.6597303561426637
  1.5029439085258067  7.8586357767667909  4.7705130813119272
  7.9485848797175702 11.1091442347846261  4.7285946972496342
  7.9638243708167797  4.6549745849948732  8.0179542323261579
  3.1047400014804278  6.2466960691805395 15.7826050313132313
  9.5699047441927334  6.3251182720224746 15.8810984942390636
 12.7084921390795795  9.4502113920186464  3.1372581028200575
 15.8572337658457876 15.8714658494191969  9.4785016639777897
  4.7835851127953433  7.8692916529834784  1.6112952420351367
  4.6610197210733073  1.6537194185952651  4.7550110247700870
  8.1271378725019279 11.0962457361090099 11.0601517910355867
  9.5101508804361199  3.2025130503990993  3.0917759557792923
  3.1740445901530472 12.7815109675707106  3.1655975024365981
 15.8708323506878166  3.1275836871951781  9.5462014887962567
 12.7212641873448966  3.2119705550518924  9.4534467426278255
  6.3420741835639518  6.3587457575359370  9.5489670995097935
  3.0057450728457322  3.1622161553803201 12.6549810208983811
  8.0355192337895787 14.2489639946649280  1.4918160771181139
 11.0763136483434170 11.0739631307192443  7.9923379498779124
 11.1330610785411963 14.2249969937259007 14.3503850197019602
  3.1985053831198429 15.8494146679861529 15.8555668139423247
  3.1093521405331384  3.1608422143871482 15.8156781710071481
 12.6479283328897978  6.3298543186588772 15.7984474858585475
  6.2979540295043890 15.8619192434372493  3.1176806814550599
  6.3755229246687755  6.3809236893430104  6.3277902930766317
 12.6881288394033813  6.3636160247817006  6.4783419639697311
 15.7339788295215186  9.5570946845495985  6.3890946362616212
 15.7892377299111804 12.7348550984571354  6.4458743497271511
  3.0961190419212516 12.7602097527809946  6.3871415220489185
 15.7538517273772527  6.3557291639173004  9.5360075900544263
  3.1555002499371057  9.5693567238404871  9.5435324068187271
  6.4186295704775667  9.5377092359820548  9.4585705597267822
  6.3748882308157366 15.7978428552834131 12.6772526700012733
 12.7692256239935791 15.7557176345166265 12.6312031040124495
  3.1504889297949830  6.3237159721530016 12.6824503167655322
  3.1351142345515428 12.7234177487069751 12.6338912517132940
  4.8194703746869871 11.0730307769513967  1.5926673034671983
  1.4488647051981369 14.4174935059506719  4.6898144203093306
  4.7165731387161465  1.5815928121600300  8.0291701918278928
 11.0507934960991108  1.5719747641051960  7.9086077184202672
 11.0760470083582927 14.2558684844694525  7.9265001152728916
  6.3438171814008291  3.1430269388699190 15.8727787445797528
 15.7777936604580589  6.2909401565964718 15.8105436882571517
 15.8094100231288106  3.1189531937974797  6.4535165620773762
  3.0947766344614234 15.8818362525072718 12.6632060480503217
  9.6006237504087100  6.2869446259595421 12.7155967464996031
 14.2758250087225722  1.5470976658902349  4.7247522399087920
  8.0423364657720100 11.1227722111501102 14.3444993631361335
 12.7437385135755932 15.8282929108496742 15.7550845994068620
 15.7610665313225180 15.8688537899556437  3.0992762255937554
  9.4932072191706318 15.8646159814649188  6.3691682677663515
  3.0280487899481705 15.8834675683822901  9.5064359693263860
  6.3989050675807428  3.1333584357772861  9.5489803779414490
  9.5042008110163323 12.6736307312910430  9.4628264150025263
  9.5471614887972471  3.1968017695676374 12.7321045881757158
  7.9421577913722627  4.7635151179445838  1.5782800107867088
 11.1357778273009007  4.7493506883092609  1.5547446656183170
 14.2341122860341827  7.8771773378624363  4.7464521135409958
 14.2715277279748829  1.5788801959763017  7.9408530449130028
 11.0607434266413591  4.7029975450770358  7.9348035675091726
 11.0985259401019949  7.9801958845297944  7.9419568685007391
 14.2357326011343481 14.2995084061603102  7.9565622043737809
 14.2773732484264819 14.2789181399817764 11.0649028106960543
  1.5302780439377914  1.5838973026004146 14.2809498071448004
 11.1124645583542385  4.7215229430288170 14.2768529066995988
 14.2680755888639439  4.7358690338420182 14.2955708016385898
 11.1254541090048349 11.1519671886293601 14.3785495879785596
  4.7409852515956450 14.2897909372314036 14.2338728551090590
 14.1931272343058339 14.2556573521144099 14.2903486436736813
  3.1227206471961391 12.6604652867755867  9.5329090334362920
  7.9132844210233539  7.8632266909506390  1.5684115754780883
 14.2196297037597184  7.8828694538957587  1.5399687206953172
 14.2416656278931253  7.9247829265415666  7.9344537158310660
  1.5466402259002363  1.5533339864014877 11.0825454294589090
  1.4984164778502760  4.7670993907823354 11.1198650147555060
  1.5513550407984464  4.7659360819857834 14.2211890902341107
 15.7933527153239517 12.7280814919983563  3.1665200036992593
  9.5783999995923601  3.1736033535395700  9.5346552448863733
  4.6946202656134801  1.6232314537129122  1.6214004083249116
 11.1041233898248972  7.9211299359627159  1.5634651987560029
  7.9900837676082093  7.9610455578573340  4.7749147145249600
  1.5789562317981687  1.5615322621251444  7.9843892150413023
 14.1998660889378776  7.9144896316783004 11.1022519218062641
  4.7449137534679666  7.9129773965318044 14.2878409781892302
 12.6348463769712964  3.2502311312255303 15.7596323635494464
  1.5246706956189702  4.6790399258989286  1.5671486343891747
  4.8151659190409388 14.2460115967915240  1.5204853276182624
 14.2669473659389627  4.7667757325563844  7.9693408832356267
 11.1544115215693793  7.8825482905033359 14.2563759905569825
  9.5539980726961229 15.8674972226057491 15.7803748496562530
  9.5924938202398806 12.6778565286797953 15.8412625425924354
 12.6931829063817680 12.6596131606267317 15.8308927314567658
  3.1522385397106096  3.1586149752281019  3.0808405484732062
  9.5372861235459112  9.4903225292307098  9.4793062999703537
  8.0555175427783468 11.0907997359494015  7.9732111486000417
 14.2131652750999873 11.1041044799624267  7.9395645691006207
  1.6079027142336031 14.3284492340680583  7.9598326437150320
 14.2249685513537365  7.8862702506613296 14.2657780094639648
  9.5118085291078120  9.4651038181025609  6.3441811019086956
  9.5713428141059627 15.8706590470394548  9.5832177296790775
 14.2124779870787830  1.6112632490184675  1.4817059399277268
  8.0463008959780549 14.3216193795371698  7.9548010305613985
  4.8041772597804320 11.1234185588988712 11.0993443326993404
  8.0525816906954830  1.5702371607922985 14.2514016291985506
 12.6513890782240246  6.3895140432847413  3.0320244968893060
  6.4399793293700451  9.4198073399663542  3.1746296884157328
 11.1298536098679826  7.8803439297253393  4.7425760408657629
 14.2644659200897355 11.1593010394425498  4.7242250376324249
  4.7525852570344878  7.9435478536369146  7.9513108152419543
  4.7512730370796223  4.6637267869996855 11.0694591668245206
 14.2555063432304436  4.7471439875173118 11.1156474334433142
  1.4766594271046105 11.1266185951739001 11.0915945969024552
 15.9364612077511527  3.2568326616154351 15.7876523185478579
  9.5051833008244095  9.4115098089389946  3.1371900975326090
  3.0006020991021836  3.1213606845713433  9.5880850699971543
 12.6775713270419761  3.2593432616502085 12.7684475794451089
 15.7194040945784899  9.4560174754908957 12.6874612919191918
  6.4199315208286851  9.5344168175747193 12.6964000641447203
  4.7259288991455932 14.3424126275656327  4.8234427397393569
  8.0235800334392486  1.6571064178514843 11.1140484364066250
  1.5304239830295356 11.0825450795037472 14.2627105074976317
  6.3349195080871468 12.7580996779782438 15.8257191992667714
 12.6280064350645365 12.7232796798083925  3.1722256846644958
  9.5195684811833168  3.1969408937488875  6.3496437846816054
  9.6051825602956651 15.8439629762263099 12.6617780935297901
 11.1075766944221499 14.2764705829025544  1.4147973935080453
  1.5356911934248973  1.6064510201217377  4.7018879521371755
  7.9371113206898851  4.7306044093369035  4.7570612411616189
  1.5249458257425945  4.7704420427668621  7.9473465220453097
 11.1230233507874683  1.6581621169819030 11.1163568797906205
 11.1141927774527094 11.0709951022568607 10.9641801953973861
  8.0581040102332171 14.1857122821665467 11.0931929028163108
  1.5402500641386969 14.3039755244535964 14.2701257147626404
  3.1619290493669068  9.4528490956152069 15.8416132142101809
 12.6847635113138715 15.8222435772292300  3.1257614258353219
  6.3756674420688331  3.1150598043776667  3.1019745577627895
  3.0857299469635153  3.1391332306030142  6.4209580213971416
  6.3677315180553480 12.7101370204837689  6.4349004254532893
 12.7762205102029753 12.6606694616021649  6.3955999161856694
 12.7154288580382779  6.3258563695185961  9.4283043152148256
 12.7150984116008914 12.7043958885655144 12.6851858139980163
 14.1775519126838407  4.6799530288711351  1.4875697317057675
  7.9586438380330318 11.1162501296987735  1.5528800723557989
  1.4877193027157987 11.2019535192145536  4.7315886536899123
 14.3259688806517325 14.3156303566326049  4.7199619148581426
 14.2282968143010145 11.0826982439397952 11.0801061175944877
  1.5301088939448821  7.9351085229104124 14.2707984177676757
  8.0017458787934217  7.9277247626994845 14.2679633749363468
