Mo Nb Ta V  W 
 1.0000000000000000
    15.8515778005355408    0.0000000000000000    0.0000000000000010
     0.0000000000000025   15.8515778005355408    0.0000000000000010
     0.0000000000000000    0.0000000000000000   15.8515778005355408
 Mo  Nb  Ta  V   W  
  50  50  50  50  50
Cartesian
 15.9000877813128234 15.7774376059883110 15.7222690733979800
 15.7627871414314722  6.4401281594294399  6.3722835267893210
  9.5089356657269946  9.5156731307812592  6.3112286661017256
  6.3111616025633177  3.2888410198284967  9.5919747372659714
 12.8329842689050722  9.4443228887902055  9.4243127613460427
 11.0923866629955175  4.8047542107337788  1.5622236753193521
  7.8148842223492299  1.5284704603140498  4.8026191849972228
  1.5730215021788472  4.7400163079783324  4.7358447081039499
  7.8528347897090587 11.1517271678646939  4.7447852624592466
 14.2533727442916014  1.5676383555221813  7.9304543432197541
 11.0107576966731227  4.7640954805366489  7.9863695291451675
  1.5827449471828205  7.9568674071403507  7.9256279258285725
 11.0967377991914606  7.9339526276928920  7.9316049536599698
 11.0894535110450754  4.8221578657763953 14.2590128436835037
 14.2452734416518698 11.0768638760728670 14.2599411669852678
  4.7554927180064972 14.2557023532474858 14.2711834765403687
  6.3198056096372817  6.4135414968773929 12.5817470997272043
  7.9759494430580089  1.5609223827889642  1.5271142355110334
 14.2640675892679880  7.9407149832812767  1.5755335357096321
 14.2601829435667433 11.1609751078002546  1.6482357507908723
  4.7466261045799039  4.7467617411415288  7.9678300411058487
  1.6079627538438139 14.2783418948679444 11.0564780458440879
  4.7437709374841832  4.7937985270226724 14.2188561045891113
  6.3087159748062884  9.3885882243643870 15.8058254763709538
  3.1777534844853879  9.4733217660115958  3.2211419624781201
 15.8609337166491660 15.7869516318732312  6.3723610515512963
  6.3473027270552809 15.8141990304208822  9.5070054782332445
  9.4791009620434803  9.3823290516745033 12.7425568198133377
  4.6972901376653411  7.9999391549093524  4.8111249857373952
  7.9348050239047687  7.9912749778942462  4.7734465405865913
  4.7300202345305342  1.6033180677266494 14.2649293846698288
  7.9002344080446338  4.8130686063224770 14.2381238903513783
  1.5920516523605641 11.0923762641454093 14.2552376571534882
 12.6671435655657181  3.1595399296985778 15.8631152769524810
 12.7994220073582099  9.4477944332234003  6.3320565203372619
 11.1633770622203752 11.1255613303822170  4.7786970902277082
  1.5248541508910296  4.7913764197169426  7.9765431527754584
  8.0179565041718472 14.2285287239727243 10.9849243824631895
  9.4905839937143632 12.7082457135770888 15.9076691271479707
  3.2267860854419990 15.7918447011458092  3.1085638550840100
  3.1730917191980583 15.8357100435733287  6.3110362976576928
 12.8047005338974493 12.7185026261006104  9.4961167037261927
 11.1115824322473422  4.7859320453190008  4.7782545606513747
  1.6249275230397877 11.1342892147269250  4.7370620136751231
  7.9521891092792618  7.8354191037900272  7.9801082043747726
  1.6167050402759111 11.0254662117462239  7.9131667344989678
 10.9667504126269417  4.8261433342709097 11.0027399539053619
  4.7130670101967604 14.2670808908185975 11.0352166890592684
 11.0556337250384331 14.2024566087246846 10.9921904764401077
  7.9825661764061637 14.3015435825456354 14.3758906021101591
 12.6519452565801735  3.1902256244076153  3.1777474804262109
  6.3759472359941727  3.2035589745487978  6.3202289605431332
  6.3348948933494791 12.5687950245448494  9.3386832044452284
  9.4411136934910189  3.2412780829827508 12.6222751128883690
 14.2487710825045220  4.7783838349411987  4.7787475080237840
 11.1887554412165429 14.2058049078209443  4.6857715043135748
  7.9425428592350480 14.2138305428366483  7.9326713831650038
 11.0758562764442328  7.9416527248101971 11.0306821122010863
  3.1900656247461670  6.4311637945616775 15.7291272063110341
 15.8158562453779954  6.4486830269829047  3.2853498823153231
  9.4753006421394890 12.7340927584329879  3.1582755741971424
  6.3471892494264122  9.6704509323738268  6.4379398736838525
 15.7814328937052846 12.6938199534164209  9.4448462047682753
  7.9888895825965038  7.9935061861295784  1.5027607277449655
  1.5266244478281021 14.2438675068156240  1.7180407001928888
  4.7043746350599775  4.7130248287186820  4.7063770284872497
  4.7969324979407224 14.2578326609667858  7.8751041087557008
 12.6381161979709589  9.4255521797925432 15.8436468083843778
  3.1699105620360184  6.3985244329740230  3.1885187834064763
 15.8395067118598813  9.4785408594923179  3.3139584473937105
 16.0527640901128379  3.1489779866826271 12.6699822547158458
 12.5911808745348797  3.1934072642706566 12.6680280649739849
 15.8590583010835555  9.3649460844633570 12.7004488958188944
 15.8096079729912216 12.8012038780787201 12.7091316353893973
  6.3895715122860404 12.7192931457236558 12.6728936505467598
 11.1418751667929481  1.4921342321207918  1.5461133302998120
  1.5631738357892551 11.1523039965250259  1.6788986776219283
 11.0941380992020484 11.0905932317557845  1.5462665540003708
 14.2426111497645511 14.3329234906081382  1.6958365363751797
  7.9747623985366154  1.6448311459687763 11.0193878434597874
  3.0683766859203896  3.1558029802482168 15.7367551658180371
  6.3674624903340140 12.8069720691831677 16.0013393881660129
  3.2449575894097284 12.5857249323858227  6.3860139436828911
  9.4283160625751563 12.6001800981193153  6.3777112893595298
 12.7421335265967546 15.7486558283049600 12.6924328133658193
 12.6894032485054549  6.4707545756554588 12.6787757075873611
  3.1538152626622278  9.3283182502548083 12.6623804509367250
  1.6156662871542822  4.7586499937376789  1.5921871831785328
  4.7753925806166055 11.1896267591094656  1.6601585691321081
  7.9707832074343736  1.5691101342104030  7.9930240640325207
 11.1022882501491988 11.0815196499355562 11.0403146850219098
 14.2244886450295080  1.5306138768654836 14.3044870709980341
 15.8962907893226397  6.3933930730625219 15.7188001137356572
  3.2162939645625577  9.4586583558325028 15.8250035989061644
  6.2951263468525660  3.2617454961667707 12.6062872821060044
 14.2536295807611246  1.4884896588619321  4.6841371436503580
  4.7673358208500121 11.1727777583336625  4.7791072687592351
 14.2923429148959347 14.2785126742485797  4.6203809443543982
 14.2963653717212669 11.0931730127561750 11.0858681435748778
 11.0705490740089214  1.4840037396404120 14.3698028833058515
  9.4549867673339989 15.8191441456392905  3.1405288604555857
  1.5353427458298980  1.5426387644928037  1.6447696977463133
  7.9973758640106647  4.7485432264993435  8.0297023894297261
 14.2543671865642843  4.7607461854171120 14.2644333631051232
  9.5765308683222514  6.4445842941403715 15.7759573373251172
  9.5470564994813536  6.3939678462582581  3.1992670894551094
 12.6110361192180491  6.4490496559420869  3.1726719936987071
 12.6375879602577719  9.4695341495595198  3.2267488150920167
 15.8490165947102835 15.8221485766828760  9.5545227922661127
 12.7652921771504406 15.7901064806204108  9.5645649253012177
  3.1370499761257840  6.3604175621939705  9.5894341020287577
 15.9245056926139892  6.4090484816529045 12.6283782452494453
  4.7515063543055822  1.5362728660932317  4.7319657687844714
  7.9970244531228003 11.1031509193164553 11.1125136243637836
  4.7912509085063633 11.0798472021818188 14.2397274229588024
  3.1473130183668840 12.7345841002614115 15.8535919965210343
  9.4748712125833769  3.1955956231362315  3.2042610556431810
 15.9071756632230841  3.1822795248278202  9.5379415781099475
 12.6937842997380876  3.2428289431207689  9.5061456646634053
  6.2963194226344790  6.3440449224210802  9.6450023237416360
 15.8976106599589020 15.8097451854180679 12.7145347367271366
  3.1182441272634174  3.2002482434026911 12.6272183954592609
  6.3685989251219022  9.3028319739528165 12.6631336133604950
 11.1560210997062459 11.0299569037728062  7.9312754524503219
  3.1639719883990476 15.8221845403645087 15.8163958240991978
  6.2941464013465893  6.4339451628850552 15.7596555840523749
 15.8069685502771726 12.7213217327811172 15.8009921604281836
  6.3489901514081231 15.7550295884400313  3.0416076206348786
  6.3465162517679401  6.3763935851081124  3.1488613288978828
  6.3367390937762185  6.3512170625679012  6.3363285542238419
 12.7238153626143191  6.3964600464217760  6.3891301388166610
 15.8270191902942585  9.4848003643988559  6.3475867737969978
 15.8158478875451607 12.6555354514191105  6.4248614904745311
  6.3087732303777182  9.4735838003758897  9.4766496702275269
  6.3275081552148489 15.8343046347982224 12.6670421492323158
  9.5026490596995679 15.8100074251905962 12.6800437755303346
  3.1550572325835589  6.3368191651164212 12.6326196283180963
  1.5992543813042279 14.2132319968939171  4.6641510134826971
  4.7349855555651361  1.5253063324512361  7.9807341204129134
 11.0046279737639221  1.5730059430299843  7.9550891277379741
 11.0640855865416139 14.2183344698282532  7.9636417063639646
  6.4167259717813838  3.1960128749742545  3.1307838042802278
 15.8314939642813854  3.1652601780215428  6.4064168741083050
  3.0957600969455230  3.1803842762853911  6.3658948442687757
  3.0779258157339737  6.3982331997940323  6.3441871082957597
  9.5390515719029594  6.3766343872950868  6.2897821260424749
 12.7659084996118608  6.3625284948880472  9.4614179152325235
  3.1125803626149420 15.8639628187366579 12.6762079224365181
  9.4011839280367155  6.4055268221456361 12.6435654142851686
  8.0129063156945826 11.0250783682785460 14.3524240717991134
 12.7040905526415866 15.8337592476770208 15.8340439785272284
 15.8428843411612785 15.8208292380528537  3.1989491266006880
  6.3675537993389497 12.7428451929534230  3.1009888627932249
  3.1240596135848593  9.5234780747745269  6.3388723077072404
  3.1484447665593751 15.8414234314845750  9.5701531104382038
  9.5252737959671148 15.8334908580374396  9.5475715769542493
  9.4970470440871004 12.5956247777114623  9.4619677469940289
  1.5814564355241458  7.9845581276120789  4.8278436369594147
 14.2306534175876482  7.9429343529014069  4.7945144785597682
 14.2615899011344531 14.2587778908712739  7.9435783272832658
  1.5654925588014628  7.9307237423762782 11.0880531942047771
 14.2853502639520826 14.2256110440220169 11.1196785957523598
  1.5842847967082148  1.5745739023825602 14.2713754967073676
 14.2355740581119523 14.2835417600370835 14.2957184802503008
  9.4582073735834822  6.3507742148414410  9.5683628888307766
  4.7791534130951954  7.9613982292563392  1.5711567793777739
 11.1131724235598366  7.9571346803896574  4.8390965505737000
 14.3001363193318927  7.9268840347065019  7.9229420630354612
  4.7180259143835297 11.0407737278915921  7.8978330242612484
  1.6050483651410734  1.5470623871066511 11.0740770669798110
  1.5781146961819197  4.7798745368396771 11.0908383379085009
  4.6976590536736955  4.7836184010628262 11.1055838679581811
  7.9343461567448710  4.7678838484579611 11.0477741682209007
  4.7258755301690050  7.9061320122131598 11.0895318964588725
  1.5540224509820404  4.7836136914995038 14.2411532366623828
  9.6110490662308088  9.4553488711619611 15.8127900936398902
 15.8070841274286806 12.6531589667167896  3.1863476733410496
  3.2307773195676668 12.6990287643423940  3.1425778889048970
  9.5177791069480620  3.2080188464032471  9.5536514254005134
 11.0647634200045850  7.9908990615220716  1.5587105611735463
  7.9406047347606705 14.2950387373751369  1.5618918888158331
  7.9491082634929295  7.9297284123676386 11.0294183365424150
 14.2723813671011914  7.9616713940943953 11.1022609721066221
  4.7079538234458722  7.9269653959999919 14.1988900011073653
 12.6676799849332298 12.6857271486123544  3.1369092374134064
  4.7486810282896803 14.2082164553181816  1.5890211329766872
  7.9370992544180918  4.7776566664681548  4.7743545697422309
 14.3039333391187800  4.7951109050113976  7.9372071670020903
 11.0909471164228588  7.9914495182708070 14.2358308027503675
  1.5973011756531732 14.2357933555281466 14.2567343225660554
  9.4910607008428691 15.8314943709185165 15.8990448058849037
 12.6430865325753743 15.8587665676210303  3.1540737875615208
  3.1600171846369918  3.1560091971539990  3.1567800815499596
  6.3173434456077500 15.8353585721426651  6.3434231549788986
  6.3339956359528573 12.5961864340517682  6.4026054125275902
  7.9743266474614751 11.0748774018002880  7.9468918591721547
 14.2863053808404281 11.0516168218408861  7.9449909142318260
  1.6044391530415403  7.9269280806211562 14.2272579618764023
  7.9718115038983388  7.9670784412131992 14.3036144581890152
 14.2718581350430718  7.8981432899788739 14.2486893505048968
 15.8344263686649569  3.1665432442292967  3.1643312529119472
  9.5096588139731075 15.8059227748794680  6.3008859074811445
 15.8536444278874065  9.4579424132627228  9.4948380605611860
 14.2645591200242894  1.5044084048697732  1.5925300143518750
  7.9522267506707909  4.8325110661014454  1.5212905044589160
  4.7891448987890648 11.0558137834447994 11.1490693762754045
  7.9277863454294346  1.5869034288409269 14.2796374468495237
 11.0853865270241254 11.0689805007670969 14.3059786724791635
  6.3062084335471225 15.8193592663938798 15.9428675410628653
  9.5271056410983874  3.1934320598351316 15.8475875871563172
  6.3153203544077812  9.4939650883560329  3.1656727525590838
  3.2226503576337642 12.6007454887948693  9.4575698624284694
 12.7179862462180200  9.4307485376331890 12.7273384642924263
  4.7127621787967744  4.7499137211518034  1.5682818121677764
 11.1226613462113377  1.5372944917371527  4.7601272974514890
 14.2351853392396741 11.1646623973017149  4.7264609645065034
  4.6937889819144196  7.9583658824501713  7.9208431886189956
  4.7027185285255708  1.5515120446963018 11.0168623519714064
 14.3032429590970072  4.7818319590953724 11.1313327145189174
  1.5544870496902039 11.0735326362711550 11.0904437869817887
 15.8977646926035536  3.1715175342286646 15.8041992672795288
  9.6071960378016819  9.4764525746881354  3.2084907046028084
 12.7050558265011766 15.7922649332423806  6.4007153752151451
  3.1006401270344548  3.1933624707632533  9.6036109064856898
  4.6893130962004514  1.6306457120696201  1.6006001402213796
  4.7955501965135152 14.2019694779182366  4.7456525812721111
  1.6492137432439675  1.5243135631106264  7.9921993772757114
 14.3013749736724201  1.5922561088733429 11.1520631650474051
 11.1043569954229344 14.3263751973468239 14.3580866360940007
 12.6487655683841549  6.4392086285780952 15.8075231443442608
  9.4615929928082103  3.1939264264246794  6.3136400840218467
 12.7004045174232996  3.1775947556370778  6.4220327150297516
 15.8085932791117330  6.3864436661766026  9.5759907840912213
  3.2054193959427266  9.4479168801993030  9.5908896659523499
  3.1434586056265323 12.6985400571673495 12.6835346046645974
  9.5624795297011325 12.7063737184956764 12.7078608979446344
 11.1799336663574316 14.3207044053438004  1.5716941467505052
  1.5549936444793884  1.5395062104850037  4.6999168470424824
 11.0297783874348969  1.5706863594909051 10.9928063996618519
  6.3361716825265111  3.2041398763046574 15.8521789706591747
 15.8640864108443580  9.4957764193108218 15.8219447911727809
 12.7596215538762348 12.7043609221181057 15.8369368707701508
 12.8013248644822273 12.6793803648292638  6.4038852519987461
  9.4228056582042168  9.5027633520437220  9.4583787076257053
 12.7001299174878248 12.7564671538413315 12.6879911251064428
 14.2699289756630225  4.8059692889613483  1.5593398736126272
  1.5868579603480288  7.9686981065051885  1.5895161582193527
  7.9529446931661356 11.0552599385729806  1.5820035708951474
  7.8022317835180601 14.2379958489743341  4.8096091884598406
  1.6511252528059568 14.2982859019191544  7.9493660205796921
