Mo Nb Ta V  W 
 1.0000000000000000
    15.8515778005355408    0.0000000000000000    0.0000000000000010
     0.0000000000000025   15.8515778005355408    0.0000000000000010
     0.0000000000000000    0.0000000000000000   15.8515778005355408
 Mo  Nb  Ta  V   W  
  50  50  50  50  50
Cartesian
 12.6923475310410208 15.8557971262923516 15.7872219335760757
  6.3031623177691083  3.1055076272227455  6.2878815166536022
  1.6110668641664154  1.6389987553822367  1.5333194986294330
  7.9290703187300853  4.6979928637988371  1.5220593611960027
  7.9039617893857566  1.5558269103308251  4.7413680546756760
  1.5934806357624163  7.9465409899140376  4.7865028818514217
  7.9931142832186870 11.1734713704057818  4.7854832660645616
 14.2294822096421107  1.5800246083113973  7.9898767406882936
 11.1091611765942364  4.7721922747821424  7.9504864788404479
  1.5736352878296971  7.9248769867317916  7.9156981516685736
 14.1385821479800242 14.2620640585822933  8.0492672978259829
 11.0975374677354512  4.7332870753976994 14.2691304182435523
  4.7863170123193113 14.3679843720874860 14.2899347393811258
 12.7337810236170821  6.3783795530795420  3.1837848245016080
  9.4256496461973462 12.8116188636981505  3.1599552707935006
 12.7281644789280719  9.4384964571355887 12.6853685856781855
  7.9365855178278464  1.5161008664500624  1.4345837609196288
  4.7489161575953736  7.8943208562950158  1.5588640386451877
  1.6171794577084158 14.3208797307959124  1.5684304832936962
  4.7652982597728109  4.7039091045275727  4.7314315070820090
 11.1269100081706451  7.8882227959618367  4.7665068872321434
 14.2474946630875596  7.8908296473163713  7.9652943308850075
  1.5421777995061101  4.7248932028128534 11.1787280563976950
  4.7498773338585956  4.7524667945971224 11.1759875059516638
  1.5800466234210278 11.1150983582962510 11.0935744821635769
  4.7729741186834369 11.0725823158931078 14.2232999679551568
 15.9096137598380718  3.2296360649488638 15.7556827095413503
 15.9304835744238051  3.2176086940627013 12.7572252389129801
 12.6843610147463384  3.3120322221547500 12.6423691169048471
  6.3546456133348457  9.3751948417832480 12.6133192456236376
  7.9424409155199669  4.7014158187715722 14.2835680061374131
  1.5539988224548398 11.0691160630263337 14.2429828331011059
  1.5704937315260628  4.7558971417937617  1.5557612542840369
  4.7898457475357583 11.0726652870641580  1.5576243579737701
  1.5909414033337625  1.5928430103729265  4.7248003890739732
  7.9230313892875062  4.7205100273080083  4.7483464977966285
 11.0620381691419229 11.1619112901176951  4.8034894710133491
  1.5828523132159646  4.7266400971975084  7.9255864507745883
 11.1665078086159468  1.4941070593764689 11.1099932624155642
  7.9015446903275830 14.3077921114726738 10.9475465897273594
  1.6090057046752870 14.3078716533635912 14.2390295638858984
 12.7008161067282117 12.6916369597799044 15.8669622569988018
 12.6267027167128845 15.8124133214295846  3.1128740556729144
  3.2250309487601490 15.9288904803030231  6.3112664119208866
 12.7617726251200931 12.6725961298899410  6.3843866370204205
 12.7319315064380056 12.7252345599558581 12.6741995385512443
  4.7513003446244557 11.0736912431032319  4.7985245407619201
  7.9326529143291786  7.9044632275979021  7.9329974135802370
  7.9329535895190446 11.2227611405988199  7.9871599037566261
  4.7314997996746699 14.3190861415267268 10.9624277511647659
 15.7489786578209081  6.2854830871476066  6.3067214582471420
  6.3581504735224073  3.1668364447992881  9.6122892201508598
  9.5024491555867883  3.2687517165096320 12.5971557156786140
 11.0537602208694352 14.1866035390240626  4.8172437046415224
 14.1125038478684353 14.3358800422047619 11.1003075679243821
 14.2592166186866454 11.0648722816280323 14.2662856091650738
 15.7401932980062185  6.3742874888569627  3.2027948676780094
 12.7163515870282513  9.3984897308363777  3.0894481916197640
  3.1844139676624965  6.3305642792988852  9.5642049938798319
 11.0797638624489938  1.5716838653455159  4.7639302101261052
  4.6942025398859650  7.9432305754157175  7.8977020999400320
  4.7346324366231505 11.1512637884402732  7.9820450699243883
  6.3988332474916136  9.4943376957173129 15.7876975753655326
  9.6249703613028288  9.3237509811288302 15.8182165079007842
  3.2599340195193478  6.3276351548240850  3.1198738821414853
  3.2072138468981537  9.4538226739940114  3.2358621674732007
 12.7006089246015570 15.8108625402914029  6.3116452571077684
  3.1636704251195829  3.0591975916773464  9.6069895155828551
 15.9334240280963755 15.8982848991086065 12.7283737689002692
 15.7430116039574166  9.4608628551131311 12.6578751174441511
  9.4591238336185590  9.3651161081693886 12.7343038538221176
  6.3043536997933094 12.7593066101075046 12.6443714100730347
 11.0378929638167325  1.5803648802683385  1.4383798035126869
  1.5456274919774662 11.0696473327401232  1.5244923185046633
 11.1429393685795475 11.0820623741762461  1.6082275781251147
 14.2426191629509091 14.2527925503728206  1.5278703512197409
  1.6319553094208312  1.5870570191627691  8.0005109505779277
 11.0707241424691816 11.2005740503921967  7.9557325221258619
  7.8784103836454831  1.5857877061083796 11.0758921101333190
 15.7952231920813091 12.7067258507762855 15.7926196742836176
  6.3180620465800175 12.8397161829049846 15.9358708714778032
 12.6652523687167111 12.7261880692653850  3.1246071629088461
  6.3631898553804138  6.4360705737717394  6.2050742734755291
 15.7893365783088324  9.4946719993392215  6.3615460502563437
 12.7198043902538380  9.4864437977076115  6.3550076344912503
  3.1719801465049433 12.6646913910572358  6.3543593767189908
  3.1855898750527687  9.4487556483127584  9.5532809360924364
  3.1272269830835597  9.4449037904345747 12.6437315361177038
  9.4948121870576152 12.7452844899758464 12.6388075176997674
  1.6332183008694199 14.3119149623945319  4.7430826148158207
  4.7870348424564177  1.4819549598572956  8.0618508836758629
  7.9099755728792083  1.4873981015996947  8.0091070922539238
 11.1139717013106534 11.1858390182110856 11.0484918581068623
  9.5031142525539263  9.4955530168046263  9.5320273623444205
  7.9455038066759354 11.0991033916835935  1.5705242264629407
 14.2457397429457604  1.5771155253076699  4.7581854372932888
  1.6222167610112561 11.0265522325592809  4.7791162608429358
  1.7286162086432393 14.2815090086244663  8.0072016603777865
  7.9355820873629970 11.0888829486190783 14.2196528427234359
  7.9157940392449078 14.4342831435050822 14.3873378409293018
 15.8869584015103218 15.9091107812838715 15.7618378937259909
 15.8434983017678199 15.8881785019299144  3.1427246679938978
  9.4609257776721147 15.7530827926568460  3.1027542934175716
 12.7272036929089296  3.2338584185210952  3.1676506696022577
  6.4005966759678383 12.7668707617934238  3.1547307922075909
  9.4781872607171316  9.5035866255326855  6.3294626707564596
 15.7527054098034274  9.5347184143212900  9.5493058845684473
  7.9451719931471043 14.2275952688886669  8.0235223526427362
  3.1279659242586986  6.2808119733694907 15.7926129790012713
  9.5468948672962508  6.3671257002224930 15.8182654711650361
  9.5202718101908559  6.3521617061394569  3.1586840837968770
  6.3511689893011933  9.4586482191675980  3.2513879145147322
  6.3683568364105039  9.5064887334552139  6.3205764349152789
 15.8765819775198249 15.9015622758684341  9.5986059365194301
  9.5008983666929137  6.2911591294050968  9.5849676873923073
 15.7981259135271923 12.6421559715492151  9.5394651491158733
  6.3670525105729698  6.3433472849633912 12.6921319767626670
  4.7863439063830846 14.3064483892881604  8.0548238719456400
  7.8665043615051866 11.1497740675394486 11.0085511209331255
 12.7095627610991144  9.3712063472229463 15.8307448513586948
  3.2129603505536632 12.7134048750892212 15.8178123964776383
  9.4619903553277709  3.1794561012516511  3.1033100562091205
  9.5254742993397556  9.4447478258332982  3.2060703818392913
 15.8295790988314735 12.6729505899047066  3.1673517998648517
  3.2755578979074302 12.7330646203281841  3.0797398611057645
 15.8362641710759586 15.8197907436178316  6.3795757383415452
 15.7949931435159865  3.2343462209274723  9.5882655286235305
  9.5717956274195277  3.2192261116290015  9.5578839047606827
 12.6777664122577907  3.2148608450212999  9.5780583521340663
  6.3697357795841905  6.3382877812684750  9.5845660316425789
 15.8254571899183976 12.7273138418499521 12.6601611097244184
 11.1268864269569754 14.3429591811750026 14.2857264736487579
  3.2302559011986438 15.9354840728107146 15.8352057535563411
  3.2035579445134217  3.1840516921268485 15.8116229591176225
  6.3038765313271705  6.2684751906655443 15.8254385848001462
  6.3378985770535659 15.8507379006387872  3.0933721769868652
  6.3374943008190181  6.3079672369730408  3.1681457935092809
 12.7557720686936893  6.2862565719071632  6.3257204453717666
 15.7558762718261036 12.6842445409695497  6.4034981572634235
  3.1353240666653472  6.3129124343655958 12.7502420107754837
 12.7528326008492598  6.3108092626906327 12.7330769928004059
 11.0759964678632254 14.2297532073288107  8.0285360302654443
 15.8164332043978266  6.3438212098071860 15.7488774537934084
  6.2744992317477060  3.1137154716311981  3.0954763934340277
 15.8014742640140913  3.2284397859697793  6.3563825793931983
  3.2142354741377859  3.1153121870933331  6.2817336369651295
 12.7643878530489054  6.2452744826924800  9.5827270635305517
  3.2038105191680679 15.9775370487132484 12.6577247152225834
  9.4994186323293430  6.3442314557991928 12.6704124595104677
 11.0881819511834223  1.6387097709656369 14.2713699349145919
  3.1927620690698411  9.4885714841014064  6.3216040423003435
  3.1608410868419896 15.9437347862860204  9.6521801891303678
  9.4975256646091264 15.8793785861798220  9.5477697630302796
  6.2831128762979631 12.7175453798419493  9.5528788053789118
  9.5419304037492108 12.6864580429410516  9.5288797495808293
 14.2782349456594435  4.7480455527470067  4.7474324096598437
 14.2608012176737020  7.8907853021710510  4.7543946469450100
  1.6178258304339266  1.6257565781977508 14.2715665400850948
 14.3091056990284642  4.7488604090801374 14.2522256376977836
 14.1817913161184546 14.3130091548172107 14.2235034848340867
  6.2851520029231320 15.8954134960793461 15.9103766353933676
  9.5130074328031995  3.2059737991043002 15.8418770626412009
 12.6749228611534388 15.9109245475902075  9.5349473453827169
  3.1409893078608508 12.6267055487742486  9.5061256749694891
  4.7395824821972434  4.7407906296690108  1.5553592591420211
 14.2416081440448359  7.8482218103569963  1.5743377136061478
 14.2416220311056083 11.0848793981982574  1.5193127550611807
  4.8056060586021871  1.5624694605900671  4.7248525775138077
  1.5974270011037905  1.6533463712473397 11.1420737165250667
  4.7782467175189858  1.5884591018124310 11.0929702388586140
  7.8944469564005786  4.7429510211866814 11.1501930285352024
 14.2857941976967133  4.7460378304018622 11.1898932425602844
  4.7384119011204087  7.8798233770443140 11.1270940511457397
  1.5758449906137613  4.7534660170560965 14.2698870316207742
  4.7291601372194201  4.7357442016848283 14.2603689832781022
  6.3580212099105120 15.8605642020196687  9.5694056936125058
  4.7724259588315006  1.5775330698404089  1.5281510037770585
 11.1701897564553274  7.8780190865163338  1.5813830549669170
  7.9101206984806192 14.3388364421470165  1.5070465133776760
  4.7510208174349602  7.9252971203082589  4.7764009703985257
  7.9495278358655828  7.9097602240232581  4.7734660527358654
  7.9215985443746497  7.9148095713200828 11.1113631200400889
 14.2639436427612836  7.8819371066011312 11.1414321222858383
  4.7536921576847098  1.5950318645467789 14.3025573552945140
  9.4764023893587694 12.7160564356531136  6.3671684295800386
 12.6795909837686072 15.8566062420850749 12.7110427642707435
  4.7977846052297091 14.3472072221791507  1.5379639035821338
 11.1100019680528579 14.2865701805175718  1.5186981496342491
 14.2603185677625817  4.7481368656658463  7.9499149137765359
 11.1375036364717328  7.8695042936368420 14.2385614808540559
  9.5221889383053231 15.8689708852837317 15.8915623488506164
 12.7187258456161931 12.6309230778974921  9.5386926997073154
  7.9638030943543727 14.2651026346062864  4.7967869833833214
 14.2541359728715911 14.2918198591063526  4.7148290443702452
 14.1877026045259100 11.1095486193530082  7.9686263615123103
 11.1264462001704718  4.7951801835498582 11.1213436172119131
 14.2016608819209544 11.1289940128765039 11.1172732757259762
  1.5302430303491308  7.8982210674742186 14.2345200437536192
  7.9332709721645420  7.8786355984110621 14.2525953010596087
 14.2645033709186304  7.9170398489013696 14.2436698701486719
 15.8190897987481840  3.2053522421750156  3.1745501297248571
  9.4820938473446343 15.8026064614591117  6.3662321432425273
 12.7622041590850248  9.5412549840929515  9.5327002224671915
 14.2872835435417471  1.6226254663999660  1.5348536919226548
 11.1282715561006285  4.7500589585497490  1.5359345760267773
  1.6141815559113961  4.7449636232023584  4.7202258381591031
  7.8952144303604985  4.7241715186776805  7.8925001473049576
 11.1323592487156962  7.8903070376768367  7.9627398367110436
  1.4908978047540922  7.8602312549423710 11.1111002345062051
 11.1722749041455138  7.9049373968435610 11.1084818092237203
  4.7838229902576321 11.1257890670757345 11.0470936699754603
  7.9412525724919378  1.5797515234619250 14.3110213769594985
 11.0899447656354386 11.0839900088608996 14.2600512290015988
 15.7703003882705488  6.3263066726256776 12.7865698984339797
  7.9216596716844618  7.9064053882473084  1.5742653115535015
 14.2297919335335390 11.0864966427266864  4.7228652725425748
  4.7901426946083703  4.7543184035588943  7.9089633486784106
  1.6739694056637124 14.2703288321906694 11.0510910108759521
 15.7400809416871272  9.4842304452525887  3.1358527943236481
  3.1554654450322057  3.1079602429272448 12.7928003268067378
  4.7891190637812810 14.3059450036516704  4.7388235015431208
 14.2294850832688393  1.5751256641719809 11.2017742463721994
  4.7506753960390347  7.9131576624707689 14.2476744564396292
 12.7441917381395857  3.2320294065061512 15.8108790603706382
 12.7356765927719984  6.3973793992282486 15.7705055854532024
  9.5057489430852442  3.1215792775651221  6.3932766644538876
 12.7038735954917517  3.2307743712438097  6.3773201222841349
 15.7403878888533022  6.2650353559715102  9.5437051160100932
  6.3240104533505228  9.4384188025826727  9.5396012819383511
  6.2434425330301000 15.9319841430209710 12.6675187641246456
  9.5272930964280587 15.8811534016163076 12.6647935571055008
  3.2040752837119624 12.6913056360756116 12.6726910499417702
 11.0729229729274152  1.5085687648604993  7.9830669010179625
 14.2378957243584061  1.6274097470078879 14.1874514619035246
  6.1862345431937893  3.1699513552459986 15.8547889195439407
 15.7523829568524079  9.4006179847513032 15.8459725782161822
  3.1295155793789875  9.4573140723998126 15.7820592471109720
  9.5230122125847831 12.7455417325216303 15.8820071842566684
  3.3313315268681603 15.9191411745588436  3.0831228524448155
  3.2912392039945422  3.1407461100856429  3.1060531664775635
  6.3719338389565054 15.8159588004193399  6.3002859957095012
  3.1902629514772514  6.3375756716928100  6.3110821862412516
  9.5035564676158675  6.3448893193018616  6.3169116312217657
  6.3741137930153196 12.7288774053176095  6.3408930052634185
  6.2372207558543984  3.1469563450931930 12.7480285025699231
 14.2770191668414270  4.7865992930291590  1.5306811573938479
  1.5492029926652182  7.9150853132964585  1.5578074065597503
 11.0802933089315658  4.7269108668335367  4.7697971239241044
  1.6015314836598373 11.0804895652491595  7.9379740125290130
 11.1450428255718670 14.2983066270916321 10.9879538907972893
