Mo Nb Ta V  W 
 1.0000000000000000
    15.8515778005355408    0.0000000000000000    0.0000000000000010
     0.0000000000000025   15.8515778005355408    0.0000000000000010
     0.0000000000000000    0.0000000000000000   15.8515778005355408
 Mo  Nb  Ta  V   W  
  50  50  50  50  50
Cartesian
  9.5332227222746333 15.8820236463217963  6.2666013807217942
  3.1353048283842866 15.8844983970029840  9.5132945596185170
 12.7206339334374707  9.4483724650023007  9.4988870325447117
  6.3778675866490460 12.5668531121989133  9.4856722794921886
  1.5564030070537120  1.6246695517935088  1.5838270377839572
  1.5710271749767073  7.8970942937038924  4.7647583596731256
 11.1354022907221086  4.7827423537262685  7.8948912752951159
  1.5532376034209621  1.6256657597938655 14.2571068646413597
  4.7933072082631689 14.2520031888703063 14.2559385820957285
 14.2138068436553819 14.2798379202086778 14.2701978720568992
 15.8693065906406385 12.5117051967279842  9.6249909824816786
  1.5628323477395301 14.2355056769820738  1.5517530334447274
 11.1714340470599005  1.5424494086587046  4.7002361404758100
 14.2366512900754305 11.0762479458700653  4.7366080429269264
  4.7517458280777500 11.0579321927073053  7.9045252967787949
  4.7583297799368536  4.7373753056385040 11.0504739414709103
  4.7075912901826715  7.9393789140683868 11.0847829354060838
  4.7339153771637719  4.7686777565752552 14.2865927676779236
  6.3128582078038233  9.4983905062859595 15.7779300539535399
 15.8746269752496172 15.8605314911223036  6.3285802991531277
 12.6177248670544095 15.7967856185086220  6.2974013875118313
  6.3420024599989304 15.8486145958793365  9.5019979104310650
 15.8206634004948139  3.2082356688582183 12.6091973436806324
  6.2839547716136170 12.7031308118596336 12.8008842955780242
 11.1358902747372959  7.9344980795504858  1.5636016711570768
  7.9697559099673541 14.3230473306614456  1.5175039245187698
 14.1253331324743598 14.3251201434436126  1.5696322905354623
  7.8927766695060741  1.6480522683022811 11.0301097436550606
 14.3296676500543398  1.6094558361912144 11.0743631419646853
  7.9352691464546341  7.9833854545897038 11.1685067326961498
  4.7788224094479057  1.5506231688770342 14.2777042766974862
  7.9508434485638091  4.7562051090991817 14.2686062447172954
  6.2257257597855089  6.3819421001650802  6.3122525952922262
 15.8414926034467580  9.3791843793672722  6.4232502643107949
 12.7822835302195870  6.3683253786201082 12.7665398847554830
  1.5596021110233695  4.7795901480446394  1.5686192631882654
  4.7531280580107333 11.0252807044998935  1.5371957041900302
  4.8164939973196610 14.2934203407861347  1.5544967374348895
 10.9941460363332357 11.0882241626070179  4.8199386035586063
 11.0966255340378392  1.6053966953098036  7.9016075275314428
  7.8831522637478404 14.2476424680749894 11.1344179976306421
 15.8893275999584702  9.5154584249623611 15.8435416350525831
 12.6998673316242687 12.6371821022645214 15.9508358900143534
  3.1745527344615097 15.8629027227305741  3.1021216871486526
  6.3788997867893116 12.5405935287634929  6.3287842893305877
  3.1234459862074222 15.8911789278877063 12.6289756405846951
 12.7144478390809237 12.6502843536801048 12.6943224172864291
  7.9479718945768596  7.9842127198114392  7.8502368627587167
  1.5598872572347908 11.0235645675391094  7.8910504041099045
 11.1581435664554078  4.8037447843026033 11.1242285977338131
 12.7320957871344866  3.3181205474685522  3.2122349969324087
  6.3554376088027125  3.1746433828653102  6.2069099004007775
  9.5469495988303965 15.7979430812818649  9.5959952826413009
  9.4682810961090702 12.6293290505120659  9.5378960777498794
  9.5146495131546889  3.0884509340141926 12.8194222533284101
 14.2731178571325934  1.5988776479030202  7.9059142727114109
 11.1223249760279828  7.9747301159499564 11.1729225658845994
 11.1398020254360066  4.7532244507130468 14.2574149428207146
  9.5367149983532293  6.4535756802918307 15.7552215153426634
 15.8621444566558942  6.2833485175275952  3.1452215336462985
  9.5486523714701512  6.2988013253976858  3.1920269848960423
  6.3066150330042490  9.5704307352365650  3.2367406766533913
 12.6043869398789621 15.8320288241629843  9.5465798385042326
  3.1246720421982501 12.5727831113666682  9.5598918099432382
 15.8203199449165730  6.2899853345492653 12.7223242772362433
  4.8275852363075211  4.7172180948637052  1.6507277037330970
  7.9346144381358839  7.9522570632883314  1.5906497151239929
  4.7953094177815379  1.6919363424178611  4.7330385709925391
  4.7468830427815032  1.5881594331031228 11.0118501534700215
  7.9006445881713994  4.7496775221583825 11.0822041942577147
  7.9623981237705763 11.0414608953898483 11.1927249373130806
  9.5090524204000477  9.5174989950459867 15.8738783818603384
 12.7371745807568466  9.5743286971411248 15.8105874667603352
  3.1896131792936893 12.5628560257353801  3.1084999460924716
 12.8077626517439498  3.1916873206661385 12.7346604270332282
 15.8409286808770222  9.5891060727829540 12.7648850613348266
 15.8068109540170028 12.5148871234733186 12.7209492396598449
 10.9605366481819466 11.0591519323880068  7.8542121862850518
  3.1821214422479804 15.8240139415891132 15.8374521527256675
 12.7577533326115482  3.1571172965784204 15.7751038752001644
  6.4350489184913569 15.8887010898076291  3.2036335840601522
  6.2558874740486310  6.3245452997162053  3.2516932514686094
 12.6148022105845925  9.3934642358170013  6.4195483236977191
 15.8342057832493879 12.6747579811019104  6.3380977541034191
  9.5473507010940644 15.9447400298126034 12.7972885186249385
 12.6693707156702295 15.9155863946120988 12.7960553137470310
  9.5511423627080543 12.7727980477148186 12.6849205080653427
  1.6284907348683779  1.7088222057945901  4.8074262365116827
  7.8655533417640777  4.7241097223830328  4.6951706958831556
  1.5500333814493730 14.2328315521478270 14.2568061331977809
  3.1911577887987046  3.2696896397560247  3.2784076079021927
  3.2005124807692114 15.9057158759702393  6.3334967997393976
 15.8706770726967310  3.3590387419922587  6.3165628898200001
 12.5919562922232622 12.6935022829051452  6.2480330075085933
  9.5041325844683815  9.4913859122044837  9.4154220482784847
  9.5319050785058046  6.4636585992820903 12.7402714463121125
 14.2109754644291240  1.5882400526707088  4.7370961764257506
 14.1832876264115644 14.2934570207330882  4.7014501160717188
  1.6320233365914938 14.2370743074613824  7.9600322613615768
  7.9807843099104776 11.0793421052725964 14.2665586693898572
 15.7588403506623891 15.9051514908447373 15.8342016267947923
 15.8495176499545654 15.8809581855754001  3.1185594005377499
  9.6022253091748748 15.8169179012139072  3.1310167577782484
  6.3795202194094216 12.5858170171049402  3.1225247033955839
 15.8713705637622216  6.3378701275821641  6.3964265180019488
 15.8606865658804690  9.4875778630379770  9.5065741828656147
  7.9321875094460248 14.1998098038714353  7.8856937516765324
 14.2718027702091206 14.2527212729728845  7.9830929746456460
 14.2663743546745607 14.2140057746904400 11.1075916351856350
  3.1211530578773190  6.4038664513218428 15.8189196250311888
 12.6545535184659794  9.5922236489468258  3.1326069449464828
  6.2603422466124083  9.4966511806921048  6.3284178114745044
  3.1080655382334332  6.3191307531893912  9.4428666188335537
  9.5345368460472084  6.3797735331955687  9.4722725635564302
  6.2995866636893876  6.4028622145515106 12.7236147598194389
  3.1621455487318353 12.5938036505196251 15.8453625805928109
  3.1437528186431489  6.3546026725422644  3.2060522983494426
 15.8711688965173359  9.5296999588667539  3.0721840672214897
  3.1360119172684087  9.4936894263757079  3.1689312940358874
 15.8015128376471274 12.5968402286500893  3.0659811975874574
 15.9253620564910623  3.3143653930960069  9.5515893241703971
 12.7571399178494165  3.2622826232739826  9.5246447487297630
  6.3034129900579394  6.3894822384490482  9.4593489693504651
 15.8771240952526860 15.9628076594045449 12.6938518030118814
  3.1080677816802371  3.1654659561663832 12.6136725407414865
  4.7913893622933115 14.2462155214961008  4.7667866856956937
  3.1787984294528639  3.1369506863073431 15.8605144880429787
  6.3475096209912190  6.4030910858979313 15.7771113972184729
 15.7480947468459327 12.5538370409256039 15.8572999584202101
  6.3384451839515501 12.6265494382564807 15.8795221277880945
 12.5494095965148205 12.7155460370505953  3.0814847296492389
  9.5771515560053491  3.1558245553087905  6.2509428621543250
 12.7170353440992034  6.3272703757202464  6.3150068739004945
  3.1511540380994441  9.4527062613301798  9.4692078352116500
  6.3342526169096480  9.4950708742190155  9.4577604770244861
  6.3751519466732764 15.9067149180795795 12.7185704111842561
  3.1439915691892204  6.3420118671656462 12.6904111186774600
  3.1362364790804640 12.5482427643553738 12.7244632312895298
  1.6311722719943382 14.2433764669334355  4.7426187148406260
  7.9154647280968096  1.6063630073640014  7.9651105919056704
 15.8021449934847151  6.3575637136811887 15.8231573218268355
  3.0567529098832309  9.4815199918904707 15.7689422288328061
  3.1963932235177199  6.3722031263901870  6.3461017982378927
  9.5663652133158479  6.3501481708755998  6.3528126769692488
 12.7643017818864877  6.3674642826760079  9.4677292029177593
  6.3544185523418202  3.1452644797268978 12.7160715397329014
  8.0112589978348563 14.2007009458134110  4.8200364045221962
 14.2228914881600659 11.0702728264728876  7.9456832590634523
  4.7688582604631407 14.2328111782941029 11.0626094038419271
  7.9912264306294389 14.3586779754710907 14.4104443831335018
 12.6688019937723482 15.8856781061006398 15.8156321620048494
  9.5056560747034826  9.4700909411572862  6.3998732794575526
  6.3100360541749927  3.2223388908156458  9.4766978314328707
  7.9321305017771895  1.5775582309865748  4.7320153426711409
  1.5942629077615056  4.7799421892043554  4.7993683629398625
 14.2809837503853228  4.7899481235418699  4.7524887967771186
 11.0447895885726499 14.2606660744277107  4.7310877552112975
  1.5926599058247355  7.8988506690988691  7.9145692649602069
 11.1107283639991206  7.9057874158285255  7.9290870626299181
  7.9356433506891513  1.4838355736231883 14.3598909768786029
 14.2636340181223638  4.7597473127108367 14.2590380605407319
 14.2371732762951222 11.0758621871407676 14.2612220409048760
  6.3507515376846975 15.8634015086780291 15.8428133665575093
 14.2175067582148440 11.0749323986347452  1.5627091925383918
  4.7494891260415093  4.7500489632991467  4.7546029429215295
  4.7347728104388391  7.9110425162491111  7.9221121249207984
 14.2907246149078979  7.9141469618707427  7.9207281071352726
  1.5885328176852520  1.6521811668351711 11.0675978078350497
  1.5582787215053697  4.8051159001009154 11.1050128514616731
 14.2982666879870646  4.8143127941017854 11.0982675193035316
  1.5758736714047512 10.9911592528337589 11.1365475874839852
  4.7376596542615053 11.0339830411498863 14.3023181551723511
  9.5450622568375092  9.4640152049173949 12.7639140935183484
  1.5655771111684362 11.0470521057047275  1.5357928313516185
 11.1231576548860644 11.1021648200574958  1.5336977495192949
  4.7310143877702471  7.9430690003862097  4.7566617863948695
  4.6871486543414953  7.9308259974151332 14.2531231898843398
  1.5418337534567543 11.0763923302178444 14.2698087414945345
  9.5176826234580094 12.6472463004858398  6.3559860306095368
 11.1292920939160851 14.3403384779743455  1.5307330493877827
  1.6114200334540505  4.7727187959838657  7.8791367467934679
 14.3006045686680299  4.7920579816865887  7.9193734399988536
 14.2401718941876698  1.6241261575469623 14.2699004738088124
 11.1418041911150336  7.9756426930099762 14.2676080850921156
  9.6114901670437956 15.9121928025899049 15.9035598602359745
 12.5874741915671748 15.7813891937685522  3.1191170270719084
  6.3831412830107297  3.1161530195996594  3.1568131243900930
  3.1763183874625809  3.2732826794372953  6.3110409150336810
 14.2362155912523765  4.7754459600031662  1.5674060772182643
  1.5463709550200806  7.9081587952031729  1.5576681723752517
  7.9359896563833106 11.0750320286852482  1.5711291979627184
 11.0979016674410715  4.7681376015541259  4.7443864713404791
  4.7527823762165893 11.0672747976454033  4.7298120623879720
  7.9450555536052674 11.0895435092194408  7.8787653688408783
 14.2480754244194525 11.0821350474345497 11.0800438107171999
 11.1351085493863788 14.2596841546724225 11.1528638384301484
 11.1434132731687132  1.5645016999937598 14.3555496316291951
  1.5261914762575148  7.9127174268870339 14.2573337191864500
  7.9470854227943368  7.9919176705319401 14.2633317655104346
 14.3145029516798807  7.9632667726054498 14.2810339864865163
 15.7947940200870391  3.2531202442789664  3.1705984384261678
  3.2579605009994066  9.3990051901359859  6.3116648981150876
 14.1774187413058126  1.5641443388152283  1.6057228656310953
  7.9116073968326672  4.7190055506726480  1.5907873357259665
 11.1164857277510905  4.7612727100601839  1.5212471265196494
 14.2722074138066262  7.9157320595821501  4.7279017559082313
  7.9988516318205027 11.1049668366514496  4.8208476116282393
  7.9048114985348628  4.7054964819197043  7.9311983753952688
  1.5469143221829333  7.9221950619721966 11.1094488563785276
  4.7756194433147439 11.0591194107001112 11.1369970735456096
 11.0874164265049533 11.1116544145774903 14.2627188341513094
  9.5319771505758002  3.0723739983369787 15.8195058742782706
 12.7116987273718944  6.2836616807997174  3.2039598828194014
  9.6102320445060236 12.7096818882089710  3.0940795840766242
 15.8957409540491987 15.9170037545943881  9.5682927808871092
 12.7840894051510325  9.5203907762636604 12.7883646485736815
  7.9662616597399065  1.5322955802151195  1.5350145452362220
  4.7320894313424864  7.9411976028504290  1.5624965757072187
 14.2537662281333155  7.9232716116744175  1.5685916273005120
 11.0802769239067409  7.9506151664134990  4.7310804468781082
  4.7490733364899773  4.6886194225857398  7.8946819579035719
  4.7334052281086381 14.2312990978715224  7.9195678806744523
  1.5594432401157516 14.2277287666727865 11.1327370267328405
  1.5338742220805262  4.7254455931558192 14.2650023848352721
 15.6984644864689447  3.1952936514020029 15.8512505745071532
  9.5404070698415193  3.1283628948168394  3.1829108210486141
  9.5306449765283254  9.5956215968260086  3.1038440376386851
  3.0440071394213439  3.2719081876391996  9.5578500989048774
  9.5411360932008176  3.2113719410910972  9.5029957107732042
  6.2683995417199201  9.4496048434364397 12.8141780747049889
  4.8414281370640744  1.5994405539321668  1.6070356286614189
 11.1573110338604682  1.5430711910298276  1.5733558175891387
  7.9749064594553296  7.9857676660288321  4.7707243275083551
  1.5797210401478503  1.6806316392869678  7.8993714826047015
 14.2850127707368912  7.9313525067682811 11.1358687437402448
 11.1130571362059758 14.3021106165014498 14.3839661582940579
 12.7821770019705951  6.3539495703683961 15.8022761047331368
 12.6956727105570124  3.2819663817251623  6.3211204829867604
  3.2058345125759131 12.6096288387570308  6.2793869596803820
 15.8477580949289187  6.3212857746388389  9.4514527391873706
  3.1204301343879273  9.5198538630071408 12.8042730127630886
  4.7604938751036565  1.6957315690959509  7.9338183376569669
 11.0134474833372007 14.2266000641459573  7.8886300820039068
 11.1247357543415184  1.6460923610501004 11.1275482993261381
 11.0707899633750646 11.0077722764910231 11.1675826524825350
  6.3869626804503943  3.1136712352763096 15.8189180295502876
  9.5730996508686186 12.6694013923045929 15.9651169274429829
  6.3557268450540860 15.8924588750801874  6.3387749219963405
 12.5880041960309850 12.6815962736256171  9.5646957819402250
  1.5636783711619846 11.0598878833591776  4.7811294627222010
