Mo Nb Ta V  W 
 1.0000000000000000
    15.8515778005355408    0.0000000000000000    0.0000000000000010
     0.0000000000000025   15.8515778005355408    0.0000000000000010
     0.0000000000000000    0.0000000000000000   15.8515778005355408
 Mo  Nb  Ta  V   W  
  50  50  50  50  50
Cartesian
  3.1173662587568787 15.8568823306382818  9.5871298844954449
  1.5808513322424826  1.6664473113061700  1.5996810509175872
 14.2551177642587348  1.6734368418697758  1.5860411277130428
  7.8822631261580272  4.7601293224871917  1.6617538482141589
  7.9793326484766700 11.1597832240296260  4.7779411869052115
 11.0076915559860424 14.1660895496915380  4.7637966393461602
 14.2696437833845700  1.5271356327284837  8.0117096099496496
  7.9210153023544381  4.7664780912583042  7.8804729122314052
 11.1064312494860378  4.7646638082410186  7.9068316570055925
  1.5427958071490977  7.9760916732072440  7.9155318932600860
  1.5764303241582938  1.6514458618215950 14.2436160768674274
 11.0820419823934309  4.7877097288705768 14.2640159459461593
  3.1491676130654995  6.3039078532044082 15.8865888281946823
 15.8401655915779749 12.4926255403150552  9.5060443448254759
  1.5846603561523889 14.2128459412839305  1.5523583292176819
 11.0845493228180789  7.9239681535222442  4.7366355378652747
 14.2605282396255504 11.0472030601359084  4.7638679819555021
  4.7534102908107760  1.5112456626393309 11.0555342866176840
  4.7438369459127880  4.7721254058542604 11.1005951123756166
  4.7370787416397979  4.7887840403340576 14.2879479953780937
 12.6462889706877348 15.8047919879476613  6.3745007012068493
 15.9043703693639991  3.2749637371476337 12.6067129835868741
  6.3030607292364973  9.5116680953714550 12.7532830830171111
 15.8580474220046650 12.5437058320548935 12.6742296604118678
  7.9576018815603460 14.2495629063791878  1.6079495123956937
  7.9214116444975158  1.5293883011193647 11.0477619341405138
 14.3153132348450072  1.5091263960419101 11.0170309860712461
  7.8892691330968008  8.0050548617974258 11.0859751624958704
 14.2884203355108159  7.9546562949589985 11.1064861390179690
  4.8076804904881731  1.5789275233547821 14.3093507669395059
  4.7273404857494787  7.9588681872052947 14.2594262728501437
  6.2466949086202748  6.3826219385937328  3.1726906351177879
 15.7929960933383384  9.5267329731532051  6.4711373214687526
  3.1641404757070908 12.6367279288173275  6.3920564140233189
  9.5070776523059699 15.8205368393536112 12.6371464910576883
  3.1682711211501742 12.5720433745133704 12.6959802328957210
  1.6010306790695854  4.8236026621638262  1.5808576170093755
  4.7823607643562616 11.0662444216500209  1.5586063512309567
 11.0079352244110904 11.1210526377500578  4.7353277703733028
  7.8667262284249224 14.2232318039837509 10.9478319714765799
  1.5677700775375034 14.1978496799949809 14.2235249405084314
 15.8300513152611710  9.5515731885359383 15.8701064676384220
  9.5135059773723256 12.5552121634588882 16.0268801572132134
  3.1914809047270527 15.8524087398179176  3.1363809485744945
 12.6446465135547630 15.7985487710553887  3.1488032991189900
  6.4441276859840562 15.9041191624460492  6.3768578131301732
  9.5272346027933725  6.4525253875464665 12.7776824590375444
  4.8141904233302499 11.1251072366677821  4.7961785038215989
  7.9716494126137105 14.1309005744045830  4.8420033050542681
 11.1040616745915930  4.8090196149849840 11.1095030894071325
 15.8370701844399893 15.8856459723822372  3.1158145798174184
  9.4467549957921619  9.3902155427017568  6.3290802605467187
  9.4959245366231571  3.0842630522831236 12.7043179484235580
  9.5082289101710646  6.4572757727778107  3.1182667599829874
  6.4609047647210902  9.4373305278964725  3.1769199538423680
  3.0628314557790364  6.2831020282771517  9.5303493994803024
 15.8014475263317919  6.2081925261164113 12.7078567147887309
  4.8577202674182276  1.6420193041123849  4.7090972638531676
 11.1186749933024238  1.5701830181903160  4.7780086431986417
  4.7548404157942583  7.9866208671948291  7.9565763635339435
  7.9742725822939997  4.7793040016326200 11.1281347588476134
 15.8590096510577876  3.3241426743517093 15.7357959383039638
  9.5198020684893727  9.3636988424111536 15.9402912286573493
 12.6434219836051689  9.4417500152942466 15.8285705847141589
  9.5061747813699409  3.1424332124989296  9.4682922143558521
 12.7796160773824781  3.2725688076820609 12.5927260198788940
 15.7901486043258146  9.6620708586866044 12.6883929420973409
  6.2912556980959691 12.6278927541900394 12.6949007114266514
 14.2652061668002386 14.2121990616868406  1.5774258871773297
 11.0289266892984941 11.1794121724206850  7.9581829677237312
  3.1828310587328628 15.8563857608828158 15.8445671652347571
 12.7134534978473361  3.2374057845543422 15.8004084833742287
  6.4721387304515945 15.9257609227879797  3.1953306590707462
 12.6885906570377145  9.4566443271785889  6.4764404890111553
 12.6994405401423460 15.8372477969629539 12.6625560240782153
 12.7617034995154270  6.3823548964781427 12.7683607720592214
  9.5026526636105544 12.7012921820387650 12.5963278929111286
  4.8320475653271400 14.3368560632953965  1.5656941701500300
 11.0238179249207988 14.1949837770515011  1.6147130677405510
  1.6118604925013835  1.5989670856166049  4.7614427968740216
  4.7854244769482355  1.5079106896941541  7.9844457113636347
 11.0763466222139666 14.1662941349482505  7.9708709189183029
  9.3822382106379205 15.9797926888339106 15.8633714618525961
  6.3856825352052775  3.1777772842876866 15.9319509038405567
  3.0688022673883810  9.5663569298064814 15.8190843154075509
  3.2004530693722528 15.8595887502385846  6.3748935918283571
  3.1131624264504842  3.3064994790719804  6.3196792082692026
  3.1705057178690068  6.3051058057289238  6.2649116399850131
  9.5205905409676745  6.4135566876055696  6.3300323923125204
 12.6722875738484557 12.6146048671344406  6.3845294419773921
 12.7042348304777803  6.4177223698886943  9.4678667338169049
  9.4759759473742307  9.4413287240708001  9.4227737521794399
  3.1256062709566801 15.8896833537993309 12.6603261016509396
 12.7705955925522865 12.5644966693159361 12.6199067297560283
 14.2622515819958071  1.5677322071708413  4.7715591466880225
  7.8792979631120463 11.1912845705883850  7.9423657685795996
  1.6160877999016094 14.2110523662140018  8.0505041511551525
 11.0773417272262424  1.5753104196882077 14.2637225680658943
  1.5391921045625330  7.9976398861904583 14.2482206254138273
  7.9460766290189726 14.3013824028746619 14.3459908880578073
 15.8794022158340074 15.8785558805936144 15.8366479155761759
  9.4386067123241020 15.8826619577849328  3.2025226158807816
 12.6884562583732663  3.2975688354334669  3.2580553218811787
  6.3733055239572476  3.1285965346846329  6.3492836230164595
 15.8325317801276775  6.3586600890588443  6.3676149703024931
  6.3753221323898748  3.1367969313083024  9.5126415221914353
 15.7803465302529453  9.6070468666019035  9.4592861112105791
  7.9006874048119258 14.2052320372742091  7.9295974704361756
 14.2419150337205718 14.3094262519412041  8.0457523838650129
 14.2896281112194430 14.2348326626567907 10.9872951781195969
  9.5334473296589284  6.4483824243042953 15.8556804354800747
 15.8846889702820864  6.3647696805804737  3.1973867553511455
  6.3630882815451502  9.4631289694528604  6.2873770181266044
  9.5257468418675142  6.4113025758334752  9.4588771759654264
  6.3474055997455983  6.4210560158206018 12.7114753824761255
  4.8171940943262337 14.2032268669675510  7.9868955667385686
  6.3710176470548481  9.4670669819100421 15.8494831127274942
  3.1550660464112559 12.5787288136083308 15.7506536620014312
  3.2113416760721853  6.3533452392309906  3.1936558415307066
 15.8907706123253174  9.5226562622352962  3.0756379436464618
  3.1774792893765289  9.4986196633758979  3.1503933964647910
  9.4981759474505854  9.5137539997774816  3.1124794518581202
 15.8726097749661168 12.5371107029798718  3.0968352790142113
  3.1929772173216233 12.6178551380593706  3.1076177269910259
 15.8804723885277284  3.2258196611774816  9.5950240740500234
  6.3597276304101982  6.4050494729809566  9.5120626075534389
 15.9225817903804820 15.8771973957325887 12.6367264908045183
  3.1102058575844547  3.1782974250775888 12.6421310435450120
  4.8442199101634369 14.2230173550962657  4.8340331338153950
 11.1010551730733784 14.1993802227324259 14.3330607334504396
  3.1916959164866165  3.2513557946884224 15.8604434711642082
  6.3690364063442368  6.3616509221417603 15.8754524018396204
 15.8564507705465498 12.5041802356077696 15.7812424331110428
  6.3446036445300154 12.6280267852500661 15.8879850417699533
 12.6278307262913092 12.5310262545229900  3.1142516946350480
  9.5080519247232491  3.1462515055536353  6.3385346052762053
 12.6689962188537653  6.3436216131539460  6.3131068177690803
 15.8550292810570568 12.5479585889846792  6.4513290164223394
  3.0907455232977634  9.6250517303983134  9.4942755540681976
  6.4000190012908700 15.8683545564792396 12.6981734679832137
  3.1252414141319673  6.3097132053826197 12.6786280509107652
  7.8485621286926621  4.7870380334001501  4.6586251413916653
  1.5958942904873834 14.2496620829106462  4.7608756791308293
 15.8433522905525912  6.3875385923827848 15.7970274548587000
  3.2324503014958759  3.2999815274871906  3.1719773599245418
 15.8494765489293812  3.2506629289579334  6.3408373135430960
  6.3382264707331384  3.1387153028444672 12.7242428615429262
 14.2538675890334314 14.2424461135222060  4.7899493644751550
  4.7266154967432019 14.2021704501961619 10.9988827518776926
  7.9933918447082508 11.0472610091724253 14.2627711464852798
  6.3378897486162318 12.6669587207057450  9.5224247620820126
  9.4884294318074325 12.6525304160868259  9.5111674267165398
  7.9454346977474621  1.6480132823914744  4.7266171069582237
  1.5924672720693087  4.8069641579070517  4.7889221200761343
 14.2679266617894811  4.8206683234701710  4.7783991902922036
 11.1224817846153741  7.9316910251284556  7.9248809943689578
  7.9085362554209873  1.5490388562382207 14.3053895450045641
 14.2580252230850224  4.7984343845238513 14.2349245987519080
 14.2434747869562752 11.0198176152081064 14.2567578299814759
  6.3866642331680819 15.9054159238458350 15.8647727594393047
  9.5131305600672462 12.5848544707928358  3.1628530207946079
 15.8683075579497910 15.8846669142885606  9.6073683317349197
 12.6878209232880863 15.8362321754371695  9.4992481470785837
  3.1401652616569806 12.5787832506355706  9.5210124592125247
  7.8769860753944405  1.6175117081888406  1.6319142507746427
  4.7974414046017975  4.7896166095375197  1.6040341480966220
  7.9327030244231249  7.9093884720973122  1.5911739259161082
 14.2507254423848781 11.0162311602094878  1.5337510306139912
  4.8175491358267051  4.7634630412460721  4.7493505957837590
 14.2604181151026523  7.9218504572401232  7.9386445073013281
  1.5553168174615963  1.6152664214282741 11.0824522092038809
  1.5718652744158965  4.7610222245516889 11.0957364712941224
 14.2720539887448936  4.8165397347362031 11.0940404422587466
  1.5786347004946091 11.1212887665601379 11.0583968400475303
  1.5729922223625741  4.7926853193957388 14.2401594731963836
  4.7783222787843354 11.0417009927826282 14.2512363121928036
  6.3774004260954680 15.8419887994338584  9.5242565307123126
 11.1172237691766327  7.9251027838371311  1.5699466113408505
  1.6044909359859225 11.0441940650888437  1.5329932339334700
 11.0676379531172682 11.0400661204698913  1.5738694195521610
  4.7481261014545861  7.9527601736043243  4.7725182965685686
  7.9173202329363388  7.8677682347190805  4.6992741805162215
  1.5698718903038236 11.0728037032865174 14.2066225725514048
  9.4900167835160367 12.6445462407015654  6.3768290670781296
  6.3133725658030695  9.5062713784757946  9.4812438617284620
  7.9128510226933155  1.5314260628894421  7.9510558293364619
  1.5468387587931263  4.7702634340699950  7.9268555539201637
 11.1135998860795748  7.9566294726926490 14.2773083343667064
  6.2839754436496316  3.1995573222662896  3.1272088206308855
  6.3779939740828757 12.6115730435298925  6.3721288700912844
 12.7228519078016014 12.6184682831385704  9.5146917810257960
  1.5818194091874931  7.9179141361823024  1.5740039065385032
  7.9646064918574053 11.0581506863146846  1.6036680002520716
 11.0436993634731895  4.7765134798272539  4.7566852788390612
  7.8669731829461815  7.9585505253765412  7.9207157703997977
  1.5920419804894850 11.1192755252994004  7.9680134113270551
 14.1871402688484238 11.1017796399983641  7.9407479133635910
 14.2489109613812666 11.1205390042015964 11.0774474127788913
  7.9529349519983743  7.9767482469708924 14.2844329172189770
 14.2704407151496540  7.9605340450346267 14.2505298729590049
 12.6950479978355641 15.8525329873942660 15.8567814580839155
 15.8480956197215708  3.2882160510054086  3.2605546129413745
  6.3840592248634129 12.6355094543542226  3.1572770937941246
  9.4750096642178132 15.8813927726284234  6.3815409458708503
  3.2184141822314354  9.5436103668657672  6.3502426995739247
  9.4987485064254855 15.8433188535043747  9.4457232600581804
 12.7363297969786835  9.5199864292484815  9.4569531932317883
 11.0872643380463511  4.7809115055388496  1.5843574527636060
  1.5837503169811358  7.9723899533973892  4.7797014886317744
 14.2568373608596080  7.9589009229600753  4.7442699653210161
  1.5231379147672059  7.9810763906317641 11.1164681688247704
 11.1286410811498921  7.9645526160860278 11.1113708133630720
  4.7707880863448215 11.1325311085000642 11.0011941907681763
 11.0689490528497885 11.0696310369173201 14.2739104785122901
  4.7868995390836115 14.2673980000836824 14.2752939259690148
 14.2735050366129332 14.2128349863362242 14.2573302004410660
  9.4339051338668316  3.1233756742676895 15.8846915590705162
 12.6378304923751621  6.3185467410169966  3.2149044795109272
 12.6135388586277895  9.5434210574010674  3.0753281711990361
 12.7216583836002979  9.5254952286791905 12.7185393537887048
  4.7481951141995280  7.9131288353242351  1.5687646552983929
 14.2392118528206950  7.9168317241383628  1.5856851788017208
  4.7552492683042367  4.7602877896992482  7.9295083226228806
  4.8380393382166860 11.1518363740706601  7.9636482200125718
  4.7127503389758179  8.0016704052367604 11.0666763848326664
  7.8885838071331706 11.0791001753190592 11.0094090980739878
  1.5877733020753582 14.1898075902558780 11.0379385440436195
  9.5083689938970206  3.1516039543133298  3.2076817182988338
 15.8668587586308139 15.8204109776109760  6.4017466271197954
  3.0775948463116189  3.2000106992425001  9.5460383796954744
 12.7378967793074178  3.1994271629755859  9.5552037682104221
  9.5304723658970349  9.4690649369892874 12.6953942478852611
  4.8139843383245591  1.6118257254145127  1.6290066905150684
 11.1078205135998758  1.6257582817290841  1.6171748450665646
  1.5345304617632001  1.5956412295269078  7.9794391787940064
  7.9685636853277835  4.7882016578016948 14.2594177481568583
 12.6494718549370351  6.4180166891000132 15.7897510601474877
 12.6986767650265993  3.2450302555557440  6.3155265143233112
  6.3193566317833518  6.4144439549326471  6.2988122267797069
 15.8404351120895885  6.2972303598112447  9.5164073900876929
  3.1373596386673901  9.6107122558696414 12.6433803649368794
 11.1459163293860612  1.5538358092110669  7.9327424926695489
 14.2752119550572498  4.7662396899345145  7.9511592650948888
 11.1424991302347323  1.5252016467153262 11.0285447837826016
 11.0873919160363190 11.0976911238367109 11.0038393998303334
 14.2846074969760899  1.6212810568415168 14.2272957210548494
 12.7403299166386752 12.5160395710958827 15.8929736990045498
 14.2465420955820150  4.8305502012675419  1.5846634300574571
  1.6057002254559047 11.0798837772620189  4.7798004722829139
 11.1811753872039858 14.2165743112786807 10.9421932597162677
